NAME : scale_uniform_euclidean_n250
TYPE : TSP
DIMENSION : 250
EDGE_WEIGHT_TYPE : EUC_2D
NODE_COORD_SECTION
1 6743.036986 4926.276718
2 4627.090194 5638.693108
3 2892.986938 871.913750
4 9588.416571 7675.677133
5 5005.265744 2744.836179
6 5873.020327 3221.793859
7 4603.205881 4058.373024
8 5321.603860 7142.558590
9 1974.647219 6050.832380
10 5691.396962 5214.812357
11 6493.309148 2663.057280
12 6056.381629 3634.504602
13 3894.437011 452.126588
14 2274.582299 8738.954048
15 9131.342280 6682.533678
16 2820.673595 479.557098
17 203.888203 384.567930
18 5642.171666 7129.439603
19 3824.789318 7964.046169
20 367.668098 2212.849402
21 45.392853 6438.161064
22 7268.883904 7421.364957
23 9509.689071 2392.870884
24 3033.524979 2730.066922
25 2791.309168 6174.896653
26 8839.093560 6756.665308
27 8362.753836 7238.930242
28 473.645615 2189.239384
29 2217.988599 7895.334146
30 4781.906432 4372.906221
31 2800.143651 7937.608665
32 1179.959642 1558.310912
33 6739.130800 3344.306481
34 3647.677342 5765.117550
35 2844.439083 8664.413312
36 8131.918143 54.132830
37 8078.617915 9524.829076
38 5667.843176 481.169069
39 1381.316732 9582.035226
40 1434.168176 2333.985436
41 1190.663818 4899.568823
42 8964.453737 5127.202038
43 3819.788698 7796.408795
44 6506.783148 2969.012540
45 4001.154027 1041.449258
46 4963.713442 81.025873
47 1248.556911 9742.953285
48 2900.815272 341.621671
49 6976.731224 3100.314011
50 5062.967837 8107.141942
51 3906.589881 3082.391568
52 1662.841739 817.418197
53 8482.892786 9105.314151
54 166.866096 7018.490578
55 9619.871269 7047.721054
56 9765.448109 7705.982175
57 9432.276436 8821.916557
58 8958.229218 2473.088827
59 2257.551447 1226.809053
60 1276.748558 5314.445253
61 8098.152295 6823.962192
62 9768.947967 4827.005100
63 6637.374199 3700.586060
64 1452.060280 9012.906424
65 1722.710771 5664.792298
66 707.712348 363.331034
67 2696.008102 1186.496787
68 9144.501445 7031.311348
69 2315.145310 2398.990689
70 8050.335930 6484.085081
71 4889.437455 9220.143737
72 6119.474459 4566.790273
73 2807.033380 3031.715821
74 3771.181917 6693.462939
75 8217.012459 8878.014603
76 6475.003541 9586.625560
77 8670.159595 6402.322183
78 100.373227 2532.772554
79 4035.379020 4106.699372
80 4027.183867 6165.580579
81 4894.117866 1135.944592
82 7864.570270 6151.536479
83 4906.363237 591.958095
84 3683.065716 5329.599470
85 6704.508066 1233.087792
86 4034.065216 5893.388148
87 5440.570319 9878.766127
88 1695.697806 6086.183740
89 8189.904558 7281.967334
90 3137.018230 2613.144248
91 7852.872568 4069.978681
92 1991.452487 8052.033869
93 2811.095877 9123.804792
94 8002.731598 1844.102117
95 6583.318778 9829.015997
96 9298.567431 5127.048051
97 6611.994539 8585.002681
98 1443.218010 239.763473
99 9004.662848 2627.200279
100 922.642217 8206.263381
101 8727.293612 9087.076189
102 8133.291792 7677.256259
103 8607.313599 4370.724948
104 1534.640869 5699.975051
105 6074.409788 823.825598
106 9732.688635 6994.292793
107 8191.572139 5996.241029
108 6911.806086 6756.674629
109 1150.167009 1541.751198
110 4234.160070 9714.296661
111 963.381084 5765.520966
112 1878.032856 9040.801844
113 5545.374109 6668.499971
114 8888.624995 6927.995414
115 5979.070439 6594.193507
116 6400.158321 9650.805264
117 8179.705166 2620.390197
118 5317.487771 9390.291633
119 7691.371304 7812.207307
120 5276.571992 8662.609725
121 7651.787131 2952.674359
122 7411.403847 4482.856604
123 9688.654362 9895.291420
124 647.398494 2953.737096
125 5614.305049 9510.028908
126 679.262323 6184.959810
127 8248.401202 7278.192762
128 8019.592082 7791.859521
129 7855.154947 8040.515683
130 2329.200827 7403.408520
131 686.211781 7984.656541
132 4139.654400 2912.779204
133 9072.227216 458.493270
134 1961.249226 4409.833104
135 318.670380 3729.851944
136 1988.198146 7945.694140
137 3567.788665 5076.701176
138 2521.445904 2358.989153
139 2666.084168 434.141164
140 244.386533 4739.871780
141 7717.986859 6204.448949
142 4137.712326 480.637304
143 8458.477539 5560.685426
144 4064.447698 1567.128570
145 3610.283875 3884.724070
146 5169.795508 9365.059529
147 4095.816341 5078.865262
148 4325.154316 8733.911695
149 5455.806396 6327.595824
150 5726.349682 8536.623647
151 3065.128536 1239.303897
152 4699.431281 4471.467067
153 1956.073322 9140.581082
154 8460.111360 4922.478341
155 6248.319144 7562.997253
156 3399.308067 8567.511476
157 9242.481584 433.974017
158 2646.445776 4267.147021
159 7900.538515 8191.182618
160 5364.009947 1816.263357
161 9146.879693 6819.441526
162 8493.206925 7525.389696
163 3219.357621 5662.566359
164 3490.976052 3773.733709
165 3139.436757 6996.047166
166 5314.876425 3833.217947
167 1730.853500 7376.561348
168 5178.412996 578.791277
169 4386.723426 8700.993226
170 4761.741848 9951.212236
171 8499.978231 186.985333
172 7875.327274 5944.396130
173 7459.694054 1213.981876
174 6695.034813 4945.912425
175 2498.635718 9259.701076
176 9195.138791 1787.288990
177 3572.670689 7343.996361
178 4863.293834 4070.837083
179 463.258618 9958.323238
180 333.775298 336.708625
181 7866.269628 9977.957191
182 506.756486 1607.404137
183 3290.968583 5636.398651
184 4466.542995 6381.387449
185 5863.364899 6286.525852
186 7532.610737 12.696530
187 924.890406 8664.807010
188 3922.221609 571.192746
189 8798.786952 4045.246057
190 9105.376601 8042.491492
191 2343.592791 7276.287903
192 9964.350419 5020.869841
193 7267.201786 7316.074547
194 3954.178047 3019.799757
195 227.128712 9417.422808
196 1574.085027 3107.546171
197 9685.280108 9398.099291
198 9642.342246 7940.232686
199 3890.251476 6591.592490
200 7241.053939 2764.558305
201 9492.455216 4963.813945
202 2396.849389 1413.961349
203 5206.525476 3170.088151
204 1837.523984 1233.757515
205 3055.879149 1935.308507
206 4113.313708 3404.183309
207 2966.635091 1270.196401
208 2890.063401 2804.837247
209 2835.238334 145.372626
210 9027.914377 3899.981705
211 5774.753915 1222.448907
212 2520.274900 3197.160164
213 7589.891056 5017.676537
214 7674.988369 5020.803221
215 8991.001096 7054.164830
216 3671.909972 7591.146945
217 2754.699075 2446.130739
218 922.471251 4241.952424
219 3819.844614 1519.534403
220 3998.180610 3145.924533
221 6730.051950 6127.158793
222 964.816460 911.294810
223 4812.309018 8625.463943
224 5710.730762 5865.551309
225 4091.386546 3009.126285
226 407.896728 7045.772573
227 4234.812082 3568.024024
228 80.794358 8104.885918
229 8121.154531 2159.292210
230 6214.529403 7341.138750
231 9673.747585 4253.694996
232 7604.918265 3569.616534
233 8034.709810 3507.148108
234 6896.978728 6182.264749
235 3207.014661 1342.437596
236 4608.689733 216.054089
237 2916.051891 2535.668510
238 3922.693041 7351.161896
239 4505.787803 4126.650083
240 9956.918076 3980.754223
241 8913.970917 1922.784091
242 4496.474468 5971.752153
243 2596.967523 9787.264301
244 273.922268 1769.735767
245 6994.485773 4806.016250
246 7764.151101 8492.115303
247 4157.549039 4331.014457
248 4307.014128 771.017219
249 7770.405574 3930.331478
250 7833.951625 8487.149153
EOF
