NAME : scale_uniform_euclidean_n3000
TYPE : TSP
DIMENSION : 3000
EDGE_WEIGHT_TYPE : EUC_2D
NODE_COORD_SECTION
1 3224.534023 3395.539565
2 2236.854688 5283.204905
3 581.924900 5562.543730
4 8012.606842 2791.812976
5 313.622957 715.003625
6 3855.753476 2267.212008
7 5696.578443 913.178175
8 2985.995014 1882.055920
9 4815.055171 7705.043702
10 354.124547 254.642157
11 1251.713634 8042.241996
12 9066.447626 948.499187
13 7553.607340 2207.351190
14 3950.276963 3671.364198
15 3427.529768 227.008718
16 9610.337320 702.572814
17 9075.617223 8631.665363
18 169.572049 2776.032558
19 3928.072834 2265.186206
20 1189.351819 59.811602
21 5562.552534 2810.523935
22 9202.933645 1341.488117
23 8169.899067 3631.534463
24 823.536348 9466.706274
25 4186.307130 2577.371684
26 2452.326772 5297.572015
27 3351.273975 9323.187593
28 7032.302447 8513.774632
29 2058.689026 6390.045346
30 2560.674394 1532.340478
31 5131.293551 4635.710794
32 5118.775789 3755.115804
33 4939.092163 1268.658907
34 7848.680250 21.310017
35 720.101869 1591.151140
36 3983.497491 8751.679726
37 1765.868007 9145.064311
38 2569.756878 5492.729660
39 7622.805034 4689.912072
40 6565.747989 1287.516711
41 9259.969091 8670.318360
42 3414.281391 1586.940171
43 2590.042213 9502.663487
44 2023.518463 6261.750846
45 2865.527795 3874.553174
46 9186.967445 4252.146484
47 9660.563978 5431.506352
48 3891.376575 3283.157731
49 5369.729262 6490.947223
50 7088.471531 7847.481144
51 7546.620030 9448.809337
52 1112.403608 9217.251545
53 9066.075324 4734.067327
54 8319.474234 5320.221740
55 4805.771915 6283.611574
56 1334.691888 6349.076629
57 5147.875150 2521.859078
58 5315.561324 360.568047
59 2357.209164 322.604225
60 4334.290156 7998.053374
61 2360.179122 9949.088396
62 5837.043495 8866.152731
63 8112.751367 8508.168384
64 5830.233900 1844.337713
65 9772.430850 7647.465499
66 8412.866662 5979.923203
67 5239.859651 3798.903020
68 1206.028865 6736.051048
69 5298.580844 3165.942433
70 3943.047671 2862.848005
71 887.720575 8385.610980
72 7564.297588 6330.678474
73 8321.537615 1456.947147
74 2654.896799 8852.232766
75 6150.223846 7749.124703
76 1939.249985 414.474970
77 7249.699162 8973.415260
78 8477.181856 4220.033063
79 6367.445571 9908.928797
80 2158.614491 6826.080745
81 8785.096662 1861.892424
82 1757.092824 486.688396
83 1392.172691 995.771702
84 1771.120214 5051.940919
85 953.460006 7399.408097
86 1113.818593 5147.758824
87 5944.829367 5865.241162
88 9834.318492 584.043934
89 4969.754148 8581.139786
90 3574.228870 1211.549866
91 2613.433216 995.928506
92 909.656586 417.952991
93 1106.578593 7280.362601
94 9015.634595 18.771596
95 8992.636793 7249.322579
96 1879.907493 3164.085046
97 8284.667455 1183.563193
98 6755.386004 1037.429458
99 8903.944290 1945.743620
100 5464.659919 3358.277150
101 8128.884140 1413.809336
102 7915.315071 7657.808265
103 5146.065417 5069.146018
104 5843.289433 9214.959300
105 1808.669987 1625.542652
106 1802.526424 56.928115
107 9140.970587 8260.172905
108 2109.138472 1828.674806
109 5848.741862 7089.655664
110 4229.366620 5006.860506
111 9174.438562 1206.402869
112 6681.225118 3198.525653
113 8149.694449 5225.822827
114 6379.773731 9021.107915
115 4202.696485 937.513150
116 6569.930527 5920.997257
117 562.122964 1635.545914
118 4017.176777 5291.601358
119 5542.259184 6609.816875
120 9003.588882 7575.092728
121 3169.183295 563.036886
122 5098.877561 2488.159902
123 1542.325810 6366.354766
124 727.966671 6286.553040
125 4031.439916 6097.544849
126 9155.886796 3302.972630
127 1141.615426 4065.978005
128 6317.891451 2650.932970
129 4323.859410 9680.479252
130 8394.134567 5525.424786
131 9487.560086 4757.931476
132 1741.890644 2487.292929
133 6522.035140 9629.140419
134 1684.847282 1652.790738
135 6391.444673 2040.874890
136 5926.619581 5146.538490
137 9262.549995 7037.121362
138 4870.514062 9626.031765
139 5003.593086 3465.139856
140 8375.076601 8319.247352
141 5395.945188 2831.523634
142 3199.922257 8897.349269
143 9899.250683 2320.374203
144 644.773725 261.209149
145 4711.592114 2221.585019
146 3270.944019 6698.054618
147 9812.398829 5066.701449
148 556.811569 3622.197575
149 5832.368503 1192.622348
150 5561.108933 2318.563998
151 5389.944330 7027.769166
152 3412.071758 7350.168445
153 2462.528544 2866.131625
154 2245.162420 4694.972071
155 3949.026241 3668.445148
156 1286.700212 2152.838508
157 1753.417019 2265.975371
158 4231.541838 8932.151657
159 9052.166667 9442.981357
160 8811.681306 3242.430610
161 7821.788030 3033.645446
162 6765.564135 9512.543857
163 5015.757900 4144.630044
164 9826.233349 2878.678953
165 5368.495641 2678.196896
166 1150.624639 1828.233066
167 1482.688243 2090.871397
168 6962.223105 103.398278
169 8598.049445 7621.706198
170 1493.054555 1080.121038
171 2121.958657 9786.183113
172 9350.130398 125.053431
173 4071.016949 4859.361277
174 7144.119606 1414.784369
175 7673.015818 7115.218269
176 639.659658 2169.521707
177 2369.563365 9982.002940
178 8722.883151 8717.618639
179 7829.023962 7838.993213
180 988.572379 7852.604528
181 2608.715214 4222.198843
182 5488.620268 1425.603364
183 4277.240122 3617.231158
184 8392.027117 8978.555290
185 2997.112065 510.152830
186 4152.826620 1418.947294
187 3353.544269 6915.771433
188 7474.526713 9869.804631
189 8975.630095 8175.524579
190 2891.362257 6565.688251
191 6106.984427 4463.778164
192 7243.294676 4104.172094
193 1002.078658 5326.519649
194 1857.167926 8963.893928
195 9721.901697 5329.811920
196 646.115587 3676.289150
197 3901.215517 6568.235425
198 7005.870653 5195.766150
199 786.059418 8562.406381
200 2316.036288 2085.717401
201 3908.600774 2315.192100
202 3159.292464 8973.560263
203 6763.770797 7963.794116
204 5992.416859 4676.660485
205 6425.230245 7670.930121
206 3764.288454 2740.893292
207 2568.451441 254.969656
208 1457.905809 6271.242368
209 7982.520860 9443.714442
210 9905.742882 6362.865414
211 1695.644782 9339.216280
212 6646.523986 5628.207714
213 7294.255564 9836.046239
214 2768.261382 8042.333041
215 5547.069126 4525.797611
216 3794.581688 9363.969727
217 8641.407328 8103.248177
218 7544.832602 3296.155859
219 4377.265332 8795.417112
220 5473.956121 9467.729996
221 2358.912253 540.732200
222 9017.447384 1301.541082
223 925.367358 3651.335013
224 4962.804555 893.196381
225 7279.310621 4329.824099
226 4006.739285 6995.906050
227 8771.326951 4950.323821
228 4312.735218 3110.266871
229 1062.213569 6243.043599
230 5816.614018 1329.922127
231 3153.378003 6670.908396
232 8822.014890 5089.732159
233 7859.444359 1675.944052
234 8713.229195 3525.221650
235 13.580282 4939.871081
236 7571.104848 3348.557596
237 7908.395919 379.950470
238 3388.530730 4775.622993
239 4209.222097 1145.233038
240 8202.117707 6271.553768
241 7121.450566 8431.561688
242 4726.106253 5623.618923
243 3009.043730 2378.887910
244 2258.111495 1190.694565
245 7471.149666 1951.075032
246 4724.632442 3555.641837
247 4994.683193 8430.063023
248 1166.244653 52.760665
249 3588.435299 1035.440848
250 2255.540428 5000.987037
251 4499.857682 1128.414571
252 1524.095301 7912.782860
253 497.624090 6176.785170
254 7755.871254 679.264577
255 9861.892726 3790.512915
256 4838.441302 2505.836126
257 609.821400 8117.504225
258 7531.324975 6464.735565
259 1983.477697 1500.034247
260 7523.724474 2057.227535
261 9216.491291 626.666821
262 4648.922954 3099.998504
263 6884.711391 4198.050119
264 2273.660138 3424.757351
265 6039.575959 4734.731914
266 3067.575870 2162.465411
267 3532.914419 5799.666763
268 8939.285633 8562.596353
269 1053.595913 993.115365
270 59.100659 40.560098
271 3638.214489 619.956299
272 707.049091 3269.176047
273 5197.108592 1688.180019
274 9315.785182 7317.115721
275 2132.385938 5470.713263
276 2972.346223 4537.856391
277 3175.075402 7839.586344
278 2496.816127 3250.930951
279 7044.300092 7899.359107
280 599.145492 7650.859107
281 5129.992847 6384.409118
282 9018.112226 7848.014261
283 6081.796284 8097.881213
284 4046.701969 6390.204470
285 937.486277 3659.402499
286 3583.071408 5218.016774
287 7722.148185 9552.984915
288 1613.888003 2341.527691
289 7305.647871 6891.414057
290 5053.580225 7814.149309
291 4651.524789 3398.559263
292 2646.654300 7746.160490
293 4723.426258 4118.548789
294 8609.141280 2291.241315
295 6312.714655 7227.807180
296 5529.240475 3350.863653
297 3089.229588 6080.308085
298 6939.766851 2398.368162
299 4142.040875 7393.843337
300 5946.756106 3704.582814
301 2192.249721 2157.886179
302 842.899594 3229.815232
303 6911.685846 2265.047990
304 8880.735086 9042.500440
305 6549.782841 9659.237467
306 4325.857911 1861.097596
307 9066.607686 3523.723993
308 3964.892970 5132.871024
309 8202.713090 9147.672167
310 4958.932922 4711.911894
311 9621.999993 7302.146810
312 861.269914 1369.982501
313 4444.837079 2871.090212
314 1796.283803 9440.099698
315 8516.174435 9238.147098
316 1704.355417 3319.727840
317 6944.614641 9619.886906
318 3661.904265 8022.785510
319 4251.667712 8426.018122
320 8255.785055 1689.626022
321 9566.022502 8058.103707
322 5418.361429 4593.142292
323 1819.763367 2340.433331
324 5413.507296 3358.810023
325 4875.301939 7343.721471
326 5883.697679 2371.854719
327 8422.796834 5820.840782
328 648.743190 4934.965925
329 8753.089355 772.398783
330 1511.009078 4491.455361
331 6096.032028 2086.952426
332 2424.487960 2317.689549
333 1256.999279 2711.972252
334 796.003648 6616.957391
335 274.740387 5943.099499
336 9861.632044 7789.575064
337 763.879300 2265.444697
338 8167.661324 1058.487726
339 2876.656688 6635.554216
340 9248.503159 3343.549985
341 2823.642350 1743.941597
342 445.234079 6398.109035
343 9831.359092 5680.591846
344 8865.824713 4410.898673
345 9516.982363 3298.395035
346 2760.096961 4523.437530
347 5845.984032 2048.220445
348 9052.257289 2534.807077
349 9244.315579 1312.642223
350 2437.337547 6663.064516
351 6817.791971 8169.859272
352 9386.073907 8539.644126
353 5640.218091 3493.184908
354 4747.262837 3766.251729
355 5094.244778 7970.752966
356 8836.284772 2601.833878
357 6615.812731 8601.393334
358 7477.272069 9926.288730
359 6768.765699 2199.016927
360 1168.271738 8705.997121
361 3846.202256 5906.402733
362 2651.029018 6605.870174
363 8035.066240 2195.076661
364 6618.077507 462.426132
365 6674.042459 5841.877908
366 322.249369 3152.957999
367 1462.213694 7823.328407
368 653.859809 4715.243457
369 6658.431107 1430.989351
370 9655.168442 1598.790750
371 3788.394116 3889.487434
372 9102.187573 3727.576919
373 6021.639182 5658.619950
374 1545.750563 2506.620781
375 8616.155487 1194.289305
376 5456.135723 8029.802373
377 6824.060965 9682.845610
378 9256.256753 665.653012
379 9378.883352 7873.146484
380 1557.904669 1252.440549
381 6418.985393 748.167045
382 6620.474890 3986.011552
383 1167.612483 2051.783039
384 9092.994756 7838.258688
385 2360.687132 5872.968724
386 2692.589806 5336.194123
387 5268.920301 6912.986225
388 8795.544434 8005.388575
389 3784.702568 8350.863449
390 4521.225856 9068.970650
391 2097.577146 5718.802954
392 9040.327151 3311.600692
393 7360.610204 6375.154654
394 9504.641572 3848.226167
395 9006.795756 2468.333419
396 7261.946595 9978.296162
397 2307.863235 5903.318372
398 1626.082282 1459.219087
399 6095.808825 155.428268
400 8979.371407 376.435005
401 9749.665029 7038.187556
402 9580.196732 8294.374394
403 5040.244289 1972.410745
404 6120.570474 7238.046461
405 5819.292337 7384.956812
406 403.725502 5767.607241
407 7333.972272 8544.555986
408 9249.122462 1089.306414
409 2349.225572 964.970512
410 9730.720454 8270.349098
411 8523.569272 7465.164611
412 6626.505104 4554.791465
413 2845.078902 8224.146912
414 1093.183823 5546.648403
415 5378.045156 9446.948692
416 1521.057027 9856.854673
417 6231.019179 6589.524436
418 7905.839801 8427.185305
419 1166.133110 154.337947
420 7160.508998 3616.569433
421 2738.872061 3176.795988
422 8045.728198 1905.116650
423 4277.842497 9806.731737
424 9711.374214 1399.185538
425 6036.452086 8886.345512
426 3199.910658 9253.730442
427 806.425951 563.179047
428 9739.575509 1041.567403
429 2707.763754 2317.596794
430 1433.670245 4115.371471
431 1986.403895 6245.761528
432 5770.377880 9058.981806
433 9991.555088 4933.202818
434 8016.905137 4413.564949
435 6955.097657 5757.207930
436 5885.063359 1655.667277
437 4249.837657 6415.359009
438 8221.423012 7920.962189
439 9055.893102 4340.424433
440 128.965314 729.483008
441 8063.702849 977.325161
442 3075.532818 1132.658611
443 183.335887 4742.377402
444 5408.963894 5341.662325
445 1540.667102 7700.127060
446 4524.005823 5591.599827
447 2653.838795 315.745994
448 9438.121863 4332.050446
449 8046.594887 2949.335330
450 9820.224463 5015.242161
451 1324.121408 9631.980255
452 6565.074200 1700.183975
453 1081.663465 3023.230159
454 3848.904179 729.127411
455 4379.950878 6124.332681
456 74.985695 1451.883195
457 1671.134122 7383.159363
458 7044.366745 7631.587441
459 7783.123731 1112.214104
460 9463.945835 7701.513467
461 5792.040277 9791.833803
462 9186.992496 4815.527544
463 4851.267065 4697.845772
464 410.561088 3234.083701
465 4768.960357 7892.982332
466 2858.387589 6734.109388
467 6846.683753 4478.842438
468 6438.680868 2738.736003
469 2154.281674 8447.043491
470 1765.874698 8644.780995
471 8516.345385 9547.503465
472 626.203473 4810.416318
473 5633.936881 2313.464737
474 6196.824732 4829.199620
475 4280.481857 4887.064497
476 8695.565262 6136.119086
477 1875.395102 9865.012880
478 5809.790364 6513.054026
479 4510.736259 204.054310
480 5229.439548 3131.461494
481 9283.463093 698.708027
482 5749.375106 4457.220865
483 2659.233068 2796.132887
484 7538.986438 6513.872309
485 6853.340009 2997.598402
486 9179.619328 1129.632327
487 6909.198551 2359.804371
488 3304.431997 6699.296762
489 2920.448706 3647.687968
490 4730.988736 6534.953418
491 3703.764972 2402.284080
492 6625.126952 3367.889177
493 694.693590 355.752576
494 5232.074491 4832.896778
495 3912.332714 5186.312964
496 4775.433727 7660.339584
497 4739.115113 9438.926985
498 4654.950404 8285.406401
499 3074.531192 8052.151560
500 6498.069464 3996.833425
501 1564.426410 1490.207725
502 6007.709743 9148.292403
503 1608.411286 2240.509086
504 4531.975365 4073.964159
505 2431.052230 1723.757003
506 1158.947988 8519.275415
507 9012.055778 8994.026567
508 8446.256912 4605.072887
509 3968.048580 679.914433
510 3193.941184 422.510277
511 1037.515280 9035.606775
512 4382.220457 5340.599835
513 6323.411070 5740.745852
514 4411.584565 2624.756212
515 8061.495679 6214.587706
516 5748.015025 2907.299514
517 9403.878943 4799.091722
518 5085.473789 9249.408772
519 2659.805201 8216.821588
520 4047.501291 8135.070096
521 8659.147307 8897.288724
522 10.114153 210.764937
523 810.064102 8870.101499
524 3249.541756 3713.117206
525 1662.553721 1374.826129
526 8024.740924 5698.314170
527 2203.049854 1215.877031
528 2858.091760 9312.493326
529 9423.760354 6845.855328
530 1383.998935 1062.862578
531 6912.914515 8668.768633
532 4091.363448 9145.803411
533 6410.014613 3472.766460
534 4254.493103 6084.979541
535 8683.662631 1871.729765
536 8085.829738 4053.829516
537 4725.373932 9588.777593
538 506.667079 2070.425454
539 9764.728162 5223.988373
540 8004.406092 1926.059876
541 8914.870121 375.914055
542 2568.998081 3230.169532
543 3101.709481 9842.789938
544 9207.958620 4577.886198
545 7371.781021 9549.242633
546 6121.943241 1518.460416
547 3995.210029 4294.638635
548 5706.918781 6869.083515
549 7972.971308 79.910074
550 1539.367467 6440.529705
551 8448.437922 7757.334699
552 4695.388569 3340.694240
553 9233.101714 4426.517581
554 3119.892200 8106.310372
555 7765.046772 9652.789768
556 4189.296375 2666.500569
557 4240.884881 935.518655
558 9029.929476 2411.568483
559 6492.899073 8885.573879
560 377.279559 5760.011685
561 5918.588090 4154.570565
562 5780.939931 6173.889078
563 8153.375394 6987.353174
564 3750.918964 5748.433622
565 1952.943188 4080.543691
566 1236.376373 4332.919654
567 8095.183496 9840.852132
568 1988.670161 3966.951225
569 7548.791856 3932.443152
570 4628.031227 2986.810253
571 6614.784156 310.599291
572 3734.730727 3632.321616
573 5502.476359 7857.840541
574 9778.511832 2447.075271
575 2159.863208 9130.002768
576 6779.429021 2488.814291
577 5453.659382 3923.388091
578 1670.468836 2230.694020
579 6183.060182 6000.699099
580 1764.475570 3624.521393
581 5379.362671 459.423652
582 8535.365725 8779.509104
583 383.545482 9582.443422
584 5902.108344 6926.283119
585 6415.195765 705.872606
586 6543.342422 3523.031348
587 202.631924 8959.337206
588 4590.170903 112.463552
589 3612.897182 5568.094551
590 3413.939282 5750.244316
591 7900.430705 6419.867406
592 9510.702239 1012.596968
593 4315.828785 2239.393525
594 9832.202315 8216.815796
595 3002.826506 691.677369
596 554.906110 9786.226739
597 7248.089529 4504.660582
598 7678.133058 7734.745242
599 2674.067181 5533.819942
600 2371.235027 306.496712
601 375.608922 7030.767256
602 3836.074268 5574.878411
603 7427.062276 1611.265984
604 9301.286048 1154.665776
605 7055.128082 6977.893130
606 5039.444772 4460.554095
607 5267.956684 2771.310661
608 4024.397121 6595.847717
609 1814.845529 433.212467
610 8666.287226 3525.714533
611 5833.609516 737.504095
612 6617.570858 392.516211
613 3002.867507 705.874519
614 1593.783071 3209.315125
615 455.016795 4755.240305
616 4303.916469 7643.422471
617 4155.579025 3943.236873
618 6538.530212 8352.888371
619 6793.129123 4134.271251
620 8446.785452 9932.668218
621 6082.242137 1350.995544
622 1758.303742 9168.412661
623 1071.150663 3839.923751
624 8862.127290 7544.932673
625 8165.814088 9180.212275
626 3948.155576 1596.353307
627 9950.769661 3329.379901
628 779.809370 6531.003483
629 1123.613835 574.781515
630 509.539914 1553.389507
631 7643.096600 3875.745514
632 9038.604536 1780.925845
633 887.120281 8313.593172
634 2665.737474 4024.385022
635 9926.852476 7879.269192
636 2478.579398 2740.162839
637 2963.150350 9592.481278
638 5856.536103 2556.539123
639 4617.394760 4559.736102
640 4800.855009 2022.652910
641 5194.788576 4567.778348
642 4921.178703 3973.246316
643 1938.523975 8053.862697
644 7930.022219 5049.782374
645 844.689881 536.998012
646 3843.294480 815.377184
647 8083.209913 8450.481488
648 9608.142666 8144.243761
649 6997.299507 5394.591601
650 9048.798132 2967.779014
651 6377.750041 892.989332
652 956.027949 8733.908495
653 7899.418926 6783.028854
654 3802.503397 409.275289
655 8868.978548 9254.127602
656 413.282471 2406.847844
657 4015.858203 2347.354671
658 7510.638802 7705.639010
659 8666.791479 5239.177557
660 8846.485016 5430.603741
661 9717.871580 1717.062147
662 547.105806 3610.471841
663 9610.479863 5687.625784
664 7643.723124 3624.864339
665 1911.995488 6623.227743
666 9525.232744 4167.839838
667 4524.178128 9766.224569
668 7856.712611 4840.071462
669 3905.249861 2655.094573
670 5007.621509 5852.128779
671 7967.474745 7283.068749
672 9499.318276 3200.146421
673 711.490928 534.043506
674 9551.407627 4644.359044
675 2940.066421 8017.232892
676 9986.807341 1374.215882
677 6421.245470 5118.986997
678 7178.340113 5006.075507
679 7831.051736 6172.494976
680 451.784318 576.484546
681 6924.675657 8928.237203
682 1277.350823 7336.447781
683 7185.945797 3916.257754
684 7077.284975 999.882735
685 8158.665196 8013.460809
686 5598.935361 9609.445823
687 4061.452094 9247.926168
688 4042.584604 3217.120865
689 7524.395512 9198.575057
690 8799.486389 1307.027165
691 3949.560359 471.216048
692 921.312089 5724.037988
693 4606.338376 2719.883422
694 1896.072550 4212.507228
695 5226.508548 3114.750720
696 4354.726285 489.952361
697 6358.276189 2087.731341
698 6273.276277 7896.635978
699 842.006857 7989.262928
700 7012.782803 3162.596952
701 3982.282892 8029.529315
702 7442.688152 5286.557932
703 8348.230847 9189.773729
704 9815.399413 7057.006288
705 5594.201996 2641.887399
706 2830.520055 2036.108487
707 339.092777 3186.733701
708 8810.467232 7693.100949
709 4492.162277 6952.955681
710 3461.452852 568.151418
711 8778.175192 1132.856331
712 9774.812888 807.132022
713 6044.454452 2310.497514
714 2355.753409 8085.493475
715 4921.225660 8702.393477
716 1424.548935 4589.391148
717 9186.771904 3237.372455
718 2304.996603 6580.702454
719 1829.456665 5012.436791
720 7228.913049 9527.244043
721 652.321791 7654.910303
722 3596.656131 2831.917265
723 3420.821547 6850.882836
724 2710.583343 1767.949211
725 4862.059038 262.507790
726 5854.286980 6549.318804
727 1403.799961 2798.135618
728 6041.230055 1449.013232
729 7925.089755 5898.203391
730 4381.765616 5556.938762
731 1720.869541 5921.279684
732 4870.558751 8357.067306
733 5260.986010 2421.671060
734 1019.139374 2832.216169
735 876.076299 1481.767380
736 2262.627571 3571.080055
737 7958.985752 9366.632663
738 7587.161945 4973.331422
739 3129.487781 5781.419193
740 3379.876442 4862.254479
741 4611.062945 7929.231957
742 6677.335114 5461.509841
743 3872.825012 8746.391263
744 8943.536673 5790.771481
745 7520.784094 3690.128982
746 5828.239359 8734.410924
747 1842.204704 6903.279154
748 1811.570474 7585.215388
749 5296.131778 1653.172799
750 9973.710997 5842.935206
751 1796.590776 9483.066573
752 4848.849072 4309.006575
753 222.893971 9411.640668
754 5773.299423 214.403414
755 7776.868703 176.955339
756 420.729132 7496.537072
757 7883.131940 6859.285633
758 2366.740830 8943.844911
759 8078.944502 3197.264722
760 874.879225 332.169293
761 6465.138317 2845.563542
762 500.351591 1506.397869
763 717.249154 8211.521755
764 5343.073914 786.428894
765 8187.597386 1076.230119
766 4595.364354 9293.196685
767 1994.812619 7019.489256
768 601.940728 5834.088020
769 5684.557954 1744.094131
770 8980.786824 8715.055488
771 5245.971135 8397.830425
772 6224.027487 4984.391443
773 8562.854668 3510.111918
774 8655.629415 4109.149737
775 7610.808270 3196.296406
776 721.505667 7033.925763
777 4026.351471 6982.935995
778 4643.631759 8800.523548
779 9547.012359 5293.260847
780 2768.591735 3195.143371
781 6715.139086 5185.988799
782 770.186288 2296.834856
783 2.140056 1186.938734
784 7740.121285 8548.447636
785 2834.435750 1466.163121
786 3097.202638 9492.807881
787 1963.540567 4197.719758
788 9315.582957 182.265786
789 6375.425327 8177.953484
790 5066.730813 8261.067904
791 6800.350521 4604.827602
792 949.743978 6272.587949
793 8772.621933 4400.266673
794 5463.648881 4561.356729
795 5140.368856 6089.630123
796 6750.328504 7253.468406
797 9271.843051 5795.149473
798 8785.966091 99.609431
799 6625.650902 2441.087148
800 5101.783442 2354.000480
801 8184.574529 5975.087167
802 240.003193 6283.112587
803 3222.099989 9350.904632
804 6258.960276 1724.915761
805 2933.418163 5538.787242
806 8217.343283 1119.029465
807 240.104047 6650.492416
808 6576.133131 8254.468576
809 4171.098400 2970.096493
810 2571.973393 6811.496813
811 8852.383970 2677.474754
812 2865.892883 5508.214792
813 1286.088933 9246.738750
814 9765.217876 8789.652290
815 7168.748274 4194.028621
816 5531.531022 8273.570004
817 3785.446269 9869.747519
818 9720.677903 3120.881557
819 1793.228023 5054.091004
820 5679.861621 3583.152414
821 1163.325951 7750.235479
822 2015.470326 9413.138151
823 9828.072613 4027.281996
824 4693.450698 5220.666095
825 8299.464589 1501.573408
826 6059.015743 2446.096818
827 538.770735 1332.434226
828 9498.040292 3537.475589
829 9390.228486 1418.950367
830 8518.952913 2732.783829
831 5231.854058 98.294057
832 4139.567954 9677.818227
833 8847.853603 3885.239721
834 9902.340475 1138.255994
835 5966.565802 3996.017969
836 3089.652009 4188.556489
837 3666.848817 5624.821900
838 2590.817085 6842.105261
839 3430.604973 9476.591568
840 8659.339068 8237.108637
841 987.800253 8824.967463
842 37.455082 2219.805410
843 8634.491113 634.652542
844 7106.907585 7671.805042
845 4258.245778 2371.405781
846 8324.778687 3976.264139
847 494.394035 2691.544340
848 4940.906249 5596.353657
849 716.883134 649.390147
850 593.770221 6471.994022
851 3840.516755 7335.370527
852 1883.515635 8724.595857
853 8696.194100 5102.954297
854 4053.046603 6545.331490
855 7187.944424 2320.168939
856 86.066741 1293.383884
857 3530.083669 682.234764
858 1108.255958 1594.168082
859 601.995258 6492.883502
860 7929.853390 1263.500876
861 9811.042189 4138.379848
862 843.346453 5027.560865
863 9663.815609 4785.942303
864 2345.706151 5883.687024
865 5571.840870 9437.668986
866 9810.388526 3511.850334
867 6320.394384 7620.935487
868 5804.438147 1462.297869
869 4939.530508 3485.412378
870 8525.090590 3559.478997
871 8802.657216 9931.411530
872 6729.585751 3011.901675
873 9789.068580 4134.589921
874 6405.072972 743.552459
875 3.262831 6994.054737
876 4161.785306 1486.377889
877 970.220490 2253.234118
878 7251.019161 1990.010502
879 8164.302844 9407.150642
880 9706.586135 4781.926406
881 3370.547667 9690.295687
882 6108.755429 1197.261152
883 5794.655877 4464.638156
884 2169.448224 6049.758254
885 4078.631142 464.767905
886 4277.491874 2373.395734
887 6550.657427 547.068145
888 917.668309 3801.613987
889 8679.475271 1300.066525
890 7318.780295 7868.639718
891 6363.807119 4367.200589
892 5909.145148 1629.508705
893 5473.525268 4696.952215
894 6879.442621 8110.529757
895 3097.218000 3575.926764
896 4153.560752 4884.027758
897 9249.385095 9201.381796
898 3296.286611 3294.660111
899 4337.631357 5045.186081
900 4399.984564 3868.496963
901 7560.506733 1015.593074
902 1934.718653 2314.884650
903 7594.805878 5884.679702
904 5606.260175 8280.989726
905 4855.601798 3448.742680
906 4274.764022 3314.499841
907 743.743318 4930.017906
908 7059.386148 8627.920576
909 1829.517683 5233.568171
910 7716.411603 7839.943243
911 242.484488 9670.671607
912 6939.441408 3669.513463
913 6837.523694 2416.973473
914 9003.294052 7697.874480
915 1537.029063 76.881749
916 6240.350246 4334.501335
917 2710.675601 2330.890250
918 3045.703983 6185.053815
919 7650.861823 6679.534694
920 8470.375121 2133.744975
921 8802.782102 1324.267132
922 5638.497153 6350.146385
923 6816.585931 9203.136512
924 1746.551806 9627.421516
925 4013.758104 9821.412962
926 8087.634891 6618.739176
927 1216.948550 276.793966
928 4391.758865 3745.639182
929 2280.332690 6937.378141
930 9043.752157 3210.652633
931 5954.924126 4009.284053
932 837.163896 7073.523011
933 6376.885532 3172.473951
934 1391.374258 8836.629544
935 4311.643086 4109.303478
936 4289.416974 7603.587062
937 4144.772622 3937.087068
938 1288.751769 4203.819013
939 4641.258057 704.237423
940 1031.654585 2654.194367
941 2079.556726 8733.374312
942 6519.374569 9119.181237
943 1678.311484 4226.071587
944 569.201527 4255.633405
945 4993.903713 7544.002982
946 5459.763743 2748.569242
947 6980.333576 605.991988
948 8808.049725 3376.401500
949 2881.752428 5540.294723
950 7844.855527 6389.436087
951 9888.534444 9030.216205
952 2420.607859 119.728811
953 3646.042021 5614.589931
954 6117.041524 8650.416014
955 3336.421318 7417.615784
956 8611.039367 3052.457063
957 2486.427685 3430.846410
958 7808.165728 9727.052719
959 8311.283590 4120.259420
960 4034.391701 5580.836222
961 5801.971099 6701.444973
962 1563.387997 650.007160
963 9728.882081 4182.485779
964 5227.032635 6773.784445
965 5787.089474 255.293937
966 7235.947232 7984.247967
967 261.416039 914.960080
968 4234.729560 8699.672749
969 4571.583471 1369.688702
970 4103.086504 3620.825636
971 9771.525947 3357.977571
972 1757.819654 3898.925460
973 1674.747036 5696.713471
974 9506.100452 1515.857041
975 710.048294 7394.363083
976 9928.434109 52.439975
977 6829.673085 7927.822650
978 6447.071842 7440.826103
979 3194.883235 6531.864795
980 2744.694665 6691.368840
981 7580.962364 5405.887003
982 861.423237 452.665126
983 8430.304261 5552.771498
984 3926.770811 6347.540719
985 5889.096391 6110.857350
986 3682.181771 1186.224847
987 3059.280865 2657.488520
988 9398.425067 6717.723853
989 60.042557 2135.207923
990 6554.259931 1004.107125
991 9006.758066 9351.603844
992 5257.546793 1357.351069
993 5787.952082 920.810720
994 4321.223841 8421.923000
995 4481.943592 728.090344
996 9084.169688 5282.321385
997 5791.400400 6874.779269
998 2862.602234 6664.821493
999 3830.283974 7270.400590
1000 4297.441621 6380.020892
1001 9729.049171 5143.619647
1002 5561.154365 9520.208173
1003 6255.177594 1881.310287
1004 4553.578360 6386.604985
1005 6807.111617 8393.475024
1006 1268.180920 6275.567129
1007 8489.677568 137.049886
1008 7427.791416 5507.263735
1009 3342.129308 1842.794753
1010 1685.137633 3453.274470
1011 7896.117855 6071.297508
1012 4308.576887 4919.483246
1013 9930.671555 8730.752626
1014 6455.660569 9085.081934
1015 37.924248 539.035541
1016 8808.871685 9059.082276
1017 2120.789263 202.715097
1018 7859.440747 8516.858079
1019 4529.933886 462.053499
1020 4047.131011 3192.148713
1021 7497.335321 1217.038484
1022 3069.922981 8047.484358
1023 1941.394024 992.266373
1024 8346.654436 8420.939826
1025 3386.048587 9524.217423
1026 985.584252 4029.043508
1027 743.292176 7120.112253
1028 2042.450441 9492.453637
1029 5257.976097 5669.227987
1030 102.132361 3153.124446
1031 6715.679658 8682.555622
1032 2866.265822 9141.683413
1033 1979.226399 3815.704699
1034 8891.074764 4331.280167
1035 561.682092 8862.022856
1036 1169.457087 6891.368156
1037 3204.651586 4144.097397
1038 3524.627759 4067.455001
1039 1064.618093 2290.587071
1040 7703.718694 1961.328853
1041 415.380417 197.906792
1042 4878.897608 4212.303388
1043 9849.233513 1647.180324
1044 5991.412959 7021.751045
1045 5444.863127 2809.251246
1046 5873.952860 9510.348998
1047 8292.308712 1229.870557
1048 5597.142166 5515.083395
1049 3183.502479 3876.728776
1050 9137.774533 7879.946104
1051 3428.892463 8973.434344
1052 42.519123 4536.533684
1053 5614.034723 8990.114287
1054 2990.170558 807.517746
1055 6863.915021 2753.549568
1056 9974.422477 1576.455876
1057 1995.137178 260.038651
1058 7395.809405 7557.982296
1059 2011.682031 8446.635037
1060 7261.503663 1026.699037
1061 4931.220873 999.017311
1062 268.830669 7614.387777
1063 2261.135879 8066.495259
1064 870.023135 8148.999810
1065 6611.590554 889.377552
1066 1598.498454 6190.043559
1067 1373.559762 2050.939729
1068 7994.315826 5981.178857
1069 1078.335694 1232.773113
1070 3674.937150 6597.157811
1071 8246.299226 6437.751263
1072 1375.942488 2989.287383
1073 158.257470 6240.065837
1074 8362.049142 137.910721
1075 8968.930623 8752.508924
1076 7376.278998 2009.927766
1077 6131.664954 7403.050252
1078 4013.848470 2867.233156
1079 2006.518097 5483.112371
1080 5962.569434 9196.368692
1081 4723.867422 8490.007349
1082 5566.302501 2434.462023
1083 1040.603139 273.290202
1084 5922.416201 4525.432765
1085 8556.563101 9117.441737
1086 8801.404412 6377.283951
1087 3860.487311 5915.984048
1088 6371.969556 129.828371
1089 487.761831 2769.993959
1090 8349.923787 4012.951680
1091 4130.145237 5438.733962
1092 7821.433433 4466.920878
1093 1652.780048 3469.424610
1094 9557.707176 6012.383532
1095 7728.153062 8652.107999
1096 9969.883259 8813.351455
1097 7956.851834 1659.258448
1098 3927.236306 2524.373226
1099 3048.239643 4537.810269
1100 8065.969133 7083.986174
1101 9149.113235 3517.938854
1102 7836.532426 529.229711
1103 8201.090240 4468.922523
1104 1545.946438 8479.863430
1105 9489.372382 1069.419113
1106 3729.416398 6131.449607
1107 4495.636918 1075.661351
1108 6504.241844 2997.388612
1109 8489.401158 478.225243
1110 6552.177942 7491.300225
1111 5672.558378 3269.928545
1112 4652.615634 5385.378548
1113 9364.208499 9182.085974
1114 4507.093931 6146.099659
1115 1207.557494 7354.428971
1116 9267.067490 8400.113747
1117 1122.008451 4713.366070
1118 9457.008758 28.234406
1119 4998.625920 8030.511357
1120 743.739431 7277.046888
1121 5211.735356 785.867726
1122 4165.219265 7703.459226
1123 5848.090248 291.382724
1124 363.617835 1323.957517
1125 3045.109251 2773.534239
1126 1739.829529 9708.388761
1127 7017.402638 2056.422836
1128 9626.318267 3263.033581
1129 1195.571863 1867.365927
1130 560.445988 3983.056951
1131 436.340648 1535.209327
1132 242.426636 7581.863768
1133 9184.197754 2499.982649
1134 869.246417 112.325612
1135 4774.458554 3886.018094
1136 828.213368 5392.825468
1137 5728.033945 6432.415252
1138 2889.311873 8621.225162
1139 1780.898133 5155.132475
1140 5250.665440 8659.170912
1141 6551.058057 4523.906043
1142 7235.459658 1352.276877
1143 6640.476242 5820.487196
1144 6835.262970 3965.584535
1145 1955.111571 1873.533444
1146 1035.260038 5089.868008
1147 8333.622143 3217.268753
1148 290.486016 6123.718083
1149 962.974631 1982.494110
1150 1016.562852 8103.615994
1151 986.807283 7190.514483
1152 1681.225284 6332.972180
1153 6625.615090 1715.341669
1154 4870.826433 2833.095879
1155 7795.902161 9527.897791
1156 2381.964792 3311.978475
1157 6849.572068 1938.163945
1158 7147.726760 5697.852924
1159 2449.706319 8971.663269
1160 852.470243 4130.107211
1161 2526.691914 5952.479454
1162 3084.296224 1722.028410
1163 1421.929785 1194.285711
1164 4211.697957 1367.839494
1165 3768.549008 3756.024084
1166 784.672968 1608.488516
1167 2035.855298 6536.652085
1168 3713.376219 4120.495132
1169 6986.774781 394.874049
1170 4550.598100 8532.093589
1171 500.156184 2775.269993
1172 681.039612 2317.453662
1173 3241.637225 5964.258780
1174 1767.722996 5952.409296
1175 9074.600289 6710.375843
1176 1421.638109 6188.937873
1177 3718.966122 6759.283567
1178 446.381822 2240.793587
1179 6538.517484 6685.103224
1180 9753.233907 6867.414314
1181 5909.049616 6337.783395
1182 346.242940 6962.212388
1183 2736.566355 4732.066793
1184 5141.417550 6290.591488
1185 1734.397098 9502.983435
1186 7911.043945 9028.628907
1187 8372.140255 9314.103806
1188 4646.606568 4922.086807
1189 476.602651 508.699271
1190 8518.869801 492.276385
1191 762.277290 2198.925267
1192 8025.539941 2446.629495
1193 9177.082811 9535.195590
1194 2878.102499 7419.217365
1195 1562.188435 9933.109916
1196 176.888883 1068.968714
1197 648.110535 4183.114247
1198 1088.774479 8017.367463
1199 7126.631719 1807.870997
1200 2990.129250 615.260210
1201 3098.152464 2173.871182
1202 7553.449006 921.124125
1203 7548.742903 9828.763108
1204 8901.590617 207.302529
1205 8657.939115 7112.656693
1206 8517.539105 2546.928244
1207 5844.815571 6846.169068
1208 9324.172754 7866.179645
1209 9263.449594 1765.654813
1210 2714.111958 2921.707480
1211 4226.762042 543.132516
1212 7991.863645 9540.212174
1213 3602.299291 8501.279994
1214 704.894523 5961.061511
1215 239.159492 3908.539981
1216 7537.840657 2360.902403
1217 6393.367762 308.131513
1218 3292.184871 49.431317
1219 8490.674953 7597.500735
1220 2763.748390 7289.057369
1221 8924.898277 8208.871627
1222 2391.897924 4640.975303
1223 1134.058921 908.723459
1224 9599.054057 5866.622252
1225 9158.440055 8926.308286
1226 6087.110233 7221.882839
1227 2532.792452 6280.081614
1228 8452.185931 3368.020020
1229 2860.738057 6430.853477
1230 6005.616176 604.905338
1231 4678.609496 5602.531421
1232 3036.036644 7533.301629
1233 9150.573722 8873.680902
1234 5684.363989 8402.738060
1235 6571.016978 7288.412134
1236 2531.328854 2070.519258
1237 1412.945779 57.849350
1238 1778.849255 4822.995054
1239 5984.407313 8966.711778
1240 5898.244277 4618.927424
1241 4152.764220 8860.137360
1242 2736.224292 1455.126244
1243 9773.753048 5807.077280
1244 1247.640778 418.203095
1245 3165.653083 505.789333
1246 2726.914727 5952.782496
1247 6003.293201 2349.224706
1248 9837.211301 2248.105777
1249 6565.146029 63.500749
1250 5481.825455 9215.897692
1251 9101.354179 6281.711397
1252 1411.743257 6986.281112
1253 8261.288127 2853.489026
1254 4730.241677 1270.113419
1255 7949.299441 9280.136422
1256 293.608004 6711.128079
1257 8384.160642 3950.454671
1258 6184.573636 6272.911277
1259 2195.624015 1101.719970
1260 4384.827194 7089.098938
1261 6907.490664 4295.727624
1262 2145.069756 8136.943683
1263 1464.155820 9395.674536
1264 9639.231252 4316.941736
1265 2997.593298 1724.090246
1266 8393.226487 9444.821163
1267 2829.970406 8898.052404
1268 9894.963831 4217.508099
1269 1806.584103 4892.131204
1270 1892.919289 7250.891699
1271 8189.005244 5806.577631
1272 6845.835684 8298.213137
1273 6701.210068 2013.588446
1274 6504.754047 4917.635848
1275 5172.232660 4217.647952
1276 1903.084374 7328.024628
1277 4639.296724 1449.964159
1278 719.521935 7481.262518
1279 1885.146463 9099.955434
1280 1532.393588 9914.602453
1281 3946.943734 2760.746359
1282 4528.481832 1915.779423
1283 269.964004 5632.054764
1284 9279.832810 4159.580645
1285 2593.213753 6689.897738
1286 1757.916255 1676.243042
1287 5723.707563 8520.416495
1288 6066.477588 3286.218311
1289 8285.133519 6877.987601
1290 3315.644641 787.641562
1291 482.653288 273.303376
1292 8483.561555 5349.993569
1293 4041.638642 8943.075582
1294 1493.690092 476.505378
1295 8712.105633 1865.639408
1296 8897.825192 4616.156761
1297 3058.641215 717.395360
1298 1233.634860 5799.393780
1299 7065.486190 6364.579781
1300 7517.776602 5439.511765
1301 4341.279240 3733.124192
1302 5214.373670 150.231621
1303 6702.308854 3838.503496
1304 6430.459316 2821.808513
1305 271.318711 8943.536517
1306 848.788535 1220.086503
1307 3152.244856 3714.750827
1308 3358.864710 2868.090573
1309 8690.378488 3985.224348
1310 2166.893403 6200.383681
1311 9423.655540 8590.384444
1312 392.833477 3040.792365
1313 4167.217878 6283.994632
1314 5815.725886 2708.542238
1315 6626.291959 2170.241089
1316 8375.859529 3592.011259
1317 6610.039043 5475.270976
1318 3561.954737 2310.938237
1319 4088.888790 950.219267
1320 9912.329656 9049.780661
1321 1290.289225 7537.958593
1322 78.185995 6772.579705
1323 6953.567971 526.849082
1324 1899.476276 4022.819694
1325 5116.878059 2611.527640
1326 1757.732756 2120.017618
1327 2683.363478 5562.875665
1328 4578.663208 7183.169442
1329 2815.778404 4713.395110
1330 9319.236920 1847.565619
1331 2348.265864 5485.462279
1332 3105.336057 8250.172671
1333 426.135993 8583.546816
1334 6043.265514 7135.834505
1335 191.482611 2352.628281
1336 1091.464692 8619.759341
1337 4870.150974 3420.600413
1338 2004.875111 7880.563978
1339 6167.254194 4785.427633
1340 6891.164602 6462.592547
1341 631.288332 4947.793370
1342 8649.301466 4209.138095
1343 2415.540736 4692.117288
1344 9317.182108 2961.265263
1345 2879.048786 8950.182885
1346 4959.608461 3453.526017
1347 3667.358444 8020.368767
1348 6152.254621 2565.301602
1349 4883.098005 2240.496389
1350 4961.744236 3098.600371
1351 6751.825962 4825.149802
1352 8192.007386 6697.684867
1353 8757.202446 3479.477846
1354 4369.955956 9645.430011
1355 9149.624863 2425.851897
1356 9908.792029 3882.557086
1357 3709.502075 1441.643788
1358 1743.389675 6955.196269
1359 7230.503671 7851.433281
1360 2970.540533 3313.993863
1361 8475.562527 3.106063
1362 8929.075310 5021.766634
1363 8402.954779 5646.831130
1364 7535.499712 6819.975752
1365 6167.895920 3095.264230
1366 4367.396908 4634.743584
1367 4864.854132 1836.557643
1368 6409.868153 3537.747575
1369 5176.292871 5968.872638
1370 7572.019270 4219.809945
1371 2574.325179 7572.875522
1372 4726.673449 3948.881344
1373 8587.159923 2105.577250
1374 4613.231181 1261.387141
1375 8239.043684 6194.790797
1376 4779.998995 6963.462078
1377 4852.176756 6293.047185
1378 6335.906333 4140.954183
1379 3902.850656 9446.090847
1380 4054.372458 8356.917142
1381 5546.203470 8803.696062
1382 5124.808007 8576.947669
1383 5122.025600 7111.371301
1384 1314.389083 9765.156930
1385 7365.878317 6878.845980
1386 8699.316819 4489.104398
1387 7189.661563 1665.181600
1388 6358.881529 8976.579615
1389 3676.932662 924.037060
1390 251.193637 7285.250702
1391 2767.053092 5293.582604
1392 6470.440703 1569.556387
1393 7764.660910 832.666574
1394 3855.763274 2923.634142
1395 336.571404 1457.227279
1396 5844.423158 3297.724669
1397 7907.624174 4162.270265
1398 6611.498116 6246.048117
1399 5327.467287 3665.218382
1400 1202.431036 6752.741968
1401 9029.459526 4525.438594
1402 8550.296687 5176.952749
1403 1601.741268 9502.864176
1404 2818.625990 179.783627
1405 977.990634 7647.477358
1406 5172.820299 1753.021194
1407 508.039329 4639.929525
1408 8900.599449 4671.226274
1409 3781.318177 6458.956896
1410 5806.805736 1457.595346
1411 7056.047648 350.448476
1412 3917.689213 1375.781343
1413 9920.298357 1351.622740
1414 9531.157714 3343.187459
1415 7059.739532 6840.644860
1416 2645.261162 8596.152242
1417 2013.204403 8581.042567
1418 3317.494698 9449.250469
1419 8934.568012 2342.966459
1420 6169.727865 400.435839
1421 2401.879733 370.785230
1422 7012.481758 1673.593785
1423 8553.332089 3007.113797
1424 5822.133941 4458.454407
1425 5074.466098 609.975207
1426 8088.469554 4504.887512
1427 6111.524570 3443.436579
1428 2771.580829 6704.832567
1429 8029.477871 312.496221
1430 5960.871150 2819.068672
1431 8206.763385 1831.196059
1432 2125.797165 4617.577543
1433 24.568042 6223.929057
1434 951.012408 8410.096099
1435 1724.597074 5095.145254
1436 5539.722705 5708.686511
1437 3070.742166 3871.530392
1438 1019.262220 1858.189319
1439 4360.241773 8584.827522
1440 8238.257077 204.264873
1441 3055.476469 4545.750334
1442 6597.605878 3219.507677
1443 5994.814878 6313.580634
1444 3225.718490 5548.947627
1445 1505.623552 3921.024711
1446 8408.067248 8336.066786
1447 4771.629682 875.086881
1448 1092.882188 6154.802264
1449 9328.208219 3776.636635
1450 4362.008017 162.625466
1451 7341.258503 3545.129959
1452 7096.898167 7759.806504
1453 2076.861584 4171.570312
1454 7977.483159 4815.011229
1455 3767.101151 7568.572215
1456 590.426360 810.236776
1457 8003.878371 5043.716216
1458 5652.603069 3957.517871
1459 5333.303644 1984.661302
1460 8205.670153 9199.781102
1461 9933.099182 7420.486819
1462 5331.824013 4441.008700
1463 1909.053146 4773.421907
1464 3846.909931 1511.545422
1465 9129.004138 8955.339737
1466 2775.216088 8093.869243
1467 7128.849468 7984.935857
1468 2150.840684 1507.619804
1469 6587.187887 413.891073
1470 1896.192101 5842.539614
1471 8649.664196 652.783234
1472 5164.004048 699.783360
1473 369.850717 4914.457167
1474 6589.840717 5963.103389
1475 612.432392 5609.540735
1476 2752.733716 1644.025108
1477 1069.564623 3912.637217
1478 8444.630946 124.412499
1479 9780.818542 4782.108194
1480 5183.745721 7460.607206
1481 7561.922612 172.879977
1482 3927.385690 9237.234212
1483 2048.372895 9946.358502
1484 3150.952081 7967.757323
1485 9452.074990 3130.762513
1486 6361.802566 2462.296294
1487 4432.575806 5191.856677
1488 5675.108482 6733.297776
1489 8202.709930 6170.169691
1490 8172.222800 9428.313214
1491 3887.425255 4492.793319
1492 6653.832446 5950.566457
1493 1634.715342 4344.210281
1494 4692.673754 6189.157544
1495 2013.674696 3657.415064
1496 2621.626766 8113.599655
1497 9239.106653 8356.582957
1498 6242.212376 5117.519866
1499 7739.384068 1026.257492
1500 42.767951 6070.319767
1501 3358.284301 1122.082851
1502 5380.422010 1531.607336
1503 3540.379045 8002.779097
1504 9115.351596 3479.577081
1505 6089.199303 1232.971153
1506 3335.039008 7873.081277
1507 2317.276272 5154.237772
1508 1333.534567 6899.742517
1509 1477.141159 7267.041140
1510 9459.416038 4634.100099
1511 3166.319903 8942.986253
1512 9265.034642 7650.612612
1513 4927.948550 1608.167686
1514 9374.579742 6452.135788
1515 8612.778171 7444.064116
1516 2966.646892 8674.264454
1517 1567.442745 8430.623489
1518 5581.855471 8876.548316
1519 7472.625368 6418.875405
1520 4559.737362 7400.463669
1521 8555.005773 8028.406540
1522 1006.308863 1201.410486
1523 6313.307030 4955.028217
1524 1179.629407 6023.461485
1525 9601.388602 4178.013258
1526 572.553610 4252.632546
1527 5933.698323 5332.577068
1528 4523.919941 7668.423257
1529 6519.401074 9694.284621
1530 4723.312409 2760.224650
1531 2999.484793 1944.111271
1532 7394.408435 9444.050481
1533 1558.187016 4887.843026
1534 8679.616843 6300.290913
1535 4324.977760 5489.020055
1536 8818.913106 6193.682394
1537 3095.958874 35.647233
1538 9643.038785 8015.616454
1539 9495.080498 2745.922873
1540 4554.075254 2160.199603
1541 7821.734519 3076.190127
1542 5881.819366 2337.822343
1543 8870.453870 309.292633
1544 7094.712178 1009.279830
1545 5645.658796 4750.714648
1546 3405.853597 7817.735444
1547 1917.155253 2302.553382
1548 2197.626608 4049.218638
1549 6534.201029 9402.698961
1550 9516.230758 7680.868280
1551 44.766031 674.502680
1552 3899.483746 5233.398355
1553 7785.521026 5375.898857
1554 5940.453168 7160.909854
1555 2792.324291 8772.642252
1556 1299.282147 7509.812039
1557 7338.801488 3403.255635
1558 4889.934012 8873.937662
1559 1472.618893 3883.733155
1560 7016.515583 6499.167830
1561 3302.340434 4794.261852
1562 8753.552826 7318.488250
1563 3362.645742 8423.259662
1564 2004.436829 8078.421585
1565 2378.340874 7728.003316
1566 8638.962148 157.702009
1567 981.025961 1315.734966
1568 4502.858816 8246.496788
1569 911.743973 4286.916182
1570 7809.349964 3484.934019
1571 7703.892187 8139.982466
1572 8240.969775 8190.902515
1573 9082.953994 9237.913572
1574 4499.786594 6909.524545
1575 1695.904401 1257.849602
1576 1968.874601 3171.681166
1577 4981.218504 4356.869471
1578 9286.708231 3074.409926
1579 4971.277385 2738.888699
1580 8206.343306 6014.602418
1581 9978.070646 4476.223633
1582 9734.974545 7576.219884
1583 9473.940312 2457.561259
1584 730.758266 1102.389664
1585 5355.970766 4218.072007
1586 2678.348224 6430.825583
1587 816.624851 406.308140
1588 5909.758108 8258.108705
1589 8129.347484 6591.946242
1590 5410.185537 9511.834366
1591 9723.848890 9038.521826
1592 2335.371462 8093.364492
1593 3107.564349 3519.153727
1594 7512.481247 8969.695805
1595 6359.409928 4942.755578
1596 6902.311022 7787.128450
1597 6549.546939 1030.495987
1598 9824.293963 71.303508
1599 5185.567659 5227.393036
1600 5173.932488 4057.351994
1601 2678.270580 7673.214726
1602 4010.054729 693.156696
1603 728.329515 916.352749
1604 5195.178819 8426.641617
1605 3177.209742 7811.485408
1606 2875.690830 9585.914790
1607 2021.029453 4000.248156
1608 2194.275082 5452.448798
1609 2024.821913 4006.601126
1610 75.313132 3694.733950
1611 9378.667455 696.712266
1612 8794.211138 9855.132662
1613 5765.047179 2528.900406
1614 8348.900945 3960.278782
1615 1231.102893 4637.220902
1616 3668.139923 8018.737193
1617 3678.229026 7973.578947
1618 4950.504635 3492.199765
1619 2493.605573 7236.229654
1620 7064.022254 8829.567322
1621 7450.177790 1651.535412
1622 5585.838901 9605.077894
1623 673.007868 8278.105001
1624 5041.378356 1094.260323
1625 8800.691806 4060.105076
1626 6240.563387 4326.144565
1627 9899.905845 4149.709409
1628 8479.200921 4545.503822
1629 7638.071799 1262.132509
1630 3776.264501 8650.544576
1631 4194.726663 3913.129169
1632 2230.839564 8434.960012
1633 3624.445467 987.611404
1634 8066.989495 7274.511069
1635 3745.912112 5196.431232
1636 3795.536131 4170.439394
1637 5355.929101 6041.978684
1638 3865.176543 7495.045732
1639 197.546029 9325.423115
1640 7743.929275 9881.226518
1641 8819.382815 8874.701033
1642 4294.389926 8318.540469
1643 8590.520748 1748.987368
1644 3330.716870 897.720452
1645 8789.294520 4351.673019
1646 8232.089024 3369.408453
1647 438.606774 748.456636
1648 4668.035657 8920.222688
1649 4026.665604 3078.209490
1650 7443.458979 1782.614768
1651 7213.675294 2436.159654
1652 607.730648 9269.515996
1653 7418.780469 282.304493
1654 8939.321269 6458.412741
1655 1229.709999 9024.327382
1656 6087.834684 6513.628027
1657 4062.588525 3011.869952
1658 9674.766456 4587.179507
1659 5879.131269 5820.224783
1660 7441.939240 6126.982373
1661 9603.447936 4163.975317
1662 8680.034836 9088.849133
1663 7148.450510 6985.824043
1664 662.582731 193.310035
1665 4201.757454 6422.686078
1666 3640.776065 2171.309824
1667 1512.377772 2785.979593
1668 2397.152945 5067.878288
1669 5118.680151 7738.956163
1670 3730.518560 7192.607415
1671 4317.285250 5571.440399
1672 1108.381466 4137.949126
1673 3056.410050 2953.179970
1674 8617.377404 1382.193704
1675 3465.307911 5683.281037
1676 3246.080247 4613.205290
1677 7346.325621 2136.197019
1678 4153.840333 7036.409934
1679 7864.716222 5891.056467
1680 5182.918643 4881.862934
1681 1518.917229 9256.649797
1682 4668.254893 4681.844530
1683 8588.660775 1749.851122
1684 849.283992 4063.371131
1685 4579.661230 3022.073039
1686 5022.089241 8349.468809
1687 3591.487980 771.998390
1688 6222.378921 5017.038402
1689 2716.704615 5474.078929
1690 6519.335146 2943.809584
1691 5650.747161 5004.838246
1692 5249.356853 4106.469097
1693 7900.322657 5292.201595
1694 3942.683436 8232.946705
1695 9071.330927 3856.990443
1696 7595.211223 7892.216310
1697 5655.928974 4716.866556
1698 1941.335024 7039.052291
1699 988.151210 6087.739616
1700 6499.012246 8075.326607
1701 6307.460005 5787.264756
1702 6852.708377 9433.207100
1703 114.869083 8224.413963
1704 1812.585067 978.525691
1705 5060.690087 3034.747760
1706 8055.061883 8822.467957
1707 4238.966622 4383.911046
1708 189.069109 7859.584771
1709 6313.597447 8514.135909
1710 4032.026150 2274.571277
1711 3593.858802 8158.247545
1712 6460.015088 8339.331801
1713 6319.446480 5494.526759
1714 5277.344659 2971.963454
1715 2119.130620 2003.634296
1716 1237.738487 417.854247
1717 7477.407275 7136.756756
1718 9890.729480 397.563896
1719 5991.144194 3157.464427
1720 4461.394269 9000.493601
1721 3697.141789 6763.622937
1722 9073.552640 2168.644704
1723 4016.282994 7823.450130
1724 8457.866196 2259.525786
1725 6274.513273 3778.345787
1726 4868.665567 6863.164480
1727 2599.957172 3274.536772
1728 2184.315045 502.257580
1729 4509.974084 5105.529194
1730 20.065957 715.115069
1731 6662.233303 3762.070656
1732 3614.425386 6532.147839
1733 2293.135359 6033.141416
1734 5070.859270 3441.140057
1735 9362.368029 5339.454548
1736 1217.020632 9849.004716
1737 1117.653778 7190.523822
1738 5748.391611 3170.250951
1739 9056.361908 9471.817119
1740 7126.513451 9949.253832
1741 7501.835376 6953.242511
1742 5952.263488 9659.522478
1743 795.665254 3304.335000
1744 4637.289867 9777.670249
1745 8070.440630 6035.043563
1746 9373.743071 6279.881923
1747 5139.494397 5948.224842
1748 2726.913473 292.854266
1749 9622.812580 6350.058530
1750 4793.293919 3580.161264
1751 8942.988258 8977.851414
1752 8694.218837 1281.300162
1753 8122.113053 5364.091218
1754 4531.585303 6377.834761
1755 6553.695279 1225.688032
1756 7043.686476 4557.339287
1757 2549.172072 6480.459228
1758 5435.553688 9098.282156
1759 848.265705 8624.889221
1760 2548.922408 6912.515073
1761 4047.305469 8682.045771
1762 8923.757046 452.318241
1763 3468.487903 9857.163651
1764 4126.548602 6600.297275
1765 9761.620990 9230.177723
1766 6333.283350 7401.609286
1767 43.390368 7833.513944
1768 7088.078003 2627.338997
1769 4919.875075 5309.539127
1770 3651.312111 480.783655
1771 1898.175677 955.975032
1772 4113.119372 3647.751400
1773 9429.416338 9057.395323
1774 1537.837740 3523.183518
1775 9171.242423 2399.713322
1776 6930.834509 6065.900603
1777 7962.297472 4140.763362
1778 5717.145027 7842.622777
1779 4793.402984 2296.076734
1780 6717.507248 2216.741321
1781 7777.489309 9157.430754
1782 7557.433617 500.737742
1783 1381.716238 5883.603995
1784 1516.659706 9976.932916
1785 5580.475902 2683.780428
1786 2577.330024 7514.680434
1787 5457.977031 9266.672374
1788 2258.264781 3454.851976
1789 7957.856640 8408.062934
1790 2350.207764 6434.188038
1791 2122.123449 2845.891019
1792 5591.462844 1737.553225
1793 7464.607555 6715.644842
1794 9292.143211 7457.255716
1795 5023.254240 349.985114
1796 8929.795760 3462.957182
1797 3132.839884 3873.274855
1798 9482.828984 246.281818
1799 8780.379508 2882.215919
1800 1692.221031 2155.709049
1801 984.181773 6221.107050
1802 6174.006586 3934.258812
1803 5321.243222 3982.479491
1804 3060.559212 4205.302037
1805 5599.694604 1957.118303
1806 902.360717 7839.306840
1807 4442.532889 2592.933965
1808 6276.395436 8556.637653
1809 2856.608710 1519.300303
1810 2512.894055 9411.244688
1811 3107.229440 3944.002750
1812 9991.186890 5867.764601
1813 3645.368474 9067.718525
1814 6085.022048 3299.012813
1815 2195.786359 1255.381381
1816 4279.249576 3752.678631
1817 8765.430206 4986.550971
1818 5932.418109 7374.507695
1819 669.347798 3019.041959
1820 7111.347493 7348.385411
1821 659.361096 8611.013247
1822 27.578807 651.594801
1823 4185.594208 2509.805388
1824 4744.108356 8021.647225
1825 9914.804596 5440.983439
1826 4989.203985 6274.819068
1827 3843.471273 5058.040313
1828 4826.873151 8160.293212
1829 1233.629397 5328.525595
1830 3324.584303 9896.746764
1831 5713.854092 9318.168573
1832 9138.897269 19.713191
1833 1527.551681 6561.274086
1834 1874.881119 7880.136678
1835 8036.361304 6346.096272
1836 4310.858882 1780.089737
1837 6682.559475 6861.147127
1838 1404.086512 260.098321
1839 6438.873625 9955.844847
1840 8616.005415 8807.106927
1841 7483.251346 1699.829914
1842 7259.170763 4127.513939
1843 6968.945179 1882.777124
1844 1563.439309 8036.306689
1845 3628.445109 9122.491431
1846 2859.542417 3997.885929
1847 6920.684426 2515.062709
1848 2909.883373 6734.362676
1849 1057.155037 820.911772
1850 4331.337082 6100.140737
1851 8243.018047 1511.714362
1852 1671.449462 9172.158984
1853 7848.443852 5503.550581
1854 9500.845011 7147.111235
1855 9430.908956 8559.109374
1856 9025.671095 6488.232625
1857 5400.312760 9132.187576
1858 8318.579999 8368.096405
1859 7665.254749 1686.502977
1860 96.864850 9318.940482
1861 5753.516342 9213.957989
1862 1414.701609 4958.293243
1863 4658.590657 19.134383
1864 4382.679500 6753.553095
1865 3382.842250 502.171868
1866 8554.861505 5653.147499
1867 493.337352 1336.717130
1868 79.410071 2876.556610
1869 6883.045350 5920.393525
1870 2877.230514 3427.181882
1871 7182.022488 3533.418062
1872 4949.434812 4747.791422
1873 1200.410368 8411.559095
1874 5055.291466 5957.805182
1875 1172.935247 4716.659858
1876 9464.126474 317.287557
1877 7376.850192 8806.317111
1878 1580.652680 2378.307244
1879 6566.446604 2528.513891
1880 6247.823749 17.831483
1881 7784.624629 6813.071099
1882 3277.502463 8945.974784
1883 6300.866874 7982.903759
1884 1540.821120 1265.563151
1885 7214.170742 2716.230190
1886 8689.319790 4377.476708
1887 4852.930063 6480.825174
1888 2216.067183 9400.767994
1889 7086.469560 5222.456741
1890 5027.231483 2310.244496
1891 2606.971715 8889.905971
1892 4607.052623 1241.349033
1893 5753.657245 2238.610266
1894 2308.663019 109.016252
1895 6600.688693 5495.323853
1896 6067.074251 8111.151037
1897 5303.943126 9093.908063
1898 6271.338856 2637.321687
1899 9452.285080 9741.245959
1900 9935.526620 7559.111769
1901 8594.817108 9627.065324
1902 2936.913463 2378.257807
1903 8945.683505 4252.598536
1904 120.888995 5041.929897
1905 2922.375993 3807.359186
1906 4741.877949 7020.572229
1907 4538.303852 9758.658517
1908 612.657178 7479.353472
1909 6318.369914 4867.127933
1910 3274.157059 7955.752878
1911 3219.334592 1520.748973
1912 9249.687042 6992.624935
1913 4801.963242 3334.945644
1914 8034.737070 1421.228587
1915 6231.408465 9612.042865
1916 4854.354614 2749.849396
1917 6696.200645 1137.424422
1918 8154.828428 4215.105829
1919 4669.974359 6925.853291
1920 228.097649 4415.849389
1921 9563.459879 5512.433780
1922 2678.239266 8955.913623
1923 2603.154855 1911.528722
1924 6681.589158 3797.058170
1925 621.099389 9717.047491
1926 7795.136454 7082.246522
1927 8889.070659 1578.080919
1928 4003.113097 2234.148922
1929 4242.430802 9842.243417
1930 6582.175236 8139.127830
1931 157.437868 909.347378
1932 664.125262 5848.511097
1933 8795.897453 3587.389974
1934 5577.788412 3744.930852
1935 4999.857203 1821.995504
1936 8500.615659 3233.281966
1937 3457.468889 2739.855154
1938 4253.645409 3915.344447
1939 4975.490349 6160.291080
1940 2678.387780 6184.096011
1941 280.505378 6254.093117
1942 9464.308469 4525.339777
1943 1655.232632 8945.813988
1944 4817.870272 5884.099756
1945 4462.545288 2953.108861
1946 6090.754200 542.859878
1947 1253.857314 3525.830602
1948 5983.407747 6440.919958
1949 6562.672448 9417.902594
1950 673.577692 1248.253076
1951 9048.335893 1770.001128
1952 7985.358440 1032.837178
1953 9427.508908 1754.624537
1954 8097.704481 5724.640860
1955 2051.596577 355.044723
1956 5266.873754 4346.073943
1957 9695.211878 9446.892324
1958 2835.984322 827.854460
1959 3850.761163 2650.734399
1960 5457.243162 2064.151243
1961 1249.797005 3191.323220
1962 9696.146979 3492.514854
1963 1425.326187 6147.814687
1964 7479.521775 160.174677
1965 6104.774527 4255.739449
1966 1481.513877 3383.254555
1967 664.990211 6045.515408
1968 9818.409821 7166.608309
1969 3932.796037 3334.725352
1970 5737.516753 1280.869992
1971 9365.689965 2885.324393
1972 4762.146567 6777.316228
1973 7289.702550 8280.743513
1974 3634.763108 2436.601591
1975 3254.262262 4574.229057
1976 6316.244641 8392.838363
1977 9169.839356 8449.586521
1978 5827.440005 9120.335009
1979 5650.167572 5560.924030
1980 7291.695398 5552.400189
1981 4351.198818 2721.354397
1982 5413.805526 7313.169066
1983 7071.342963 1527.520421
1984 6538.931544 702.156403
1985 2333.203393 6189.020569
1986 9444.326767 9014.234167
1987 1341.076266 4750.149457
1988 2284.489179 3490.527229
1989 4174.878250 3886.164632
1990 3280.223113 3809.180309
1991 7242.656812 9324.784299
1992 8310.732333 2524.222880
1993 6264.978790 8581.471692
1994 7016.690848 9543.065762
1995 5354.844690 5226.393835
1996 5888.554426 1546.349942
1997 7036.709580 5097.567473
1998 5874.672330 7054.500202
1999 433.087035 2564.546724
2000 3318.105044 6624.878007
2001 3493.994563 7713.092320
2002 9745.593299 8460.253081
2003 1381.750268 8909.182340
2004 8470.210744 3014.482596
2005 537.865364 8684.586889
2006 4088.752496 3453.053858
2007 7721.221091 6130.729907
2008 195.617189 9943.905774
2009 4731.230283 3254.569841
2010 4369.521881 5787.173028
2011 3003.131998 7436.549800
2012 9013.721666 2682.181807
2013 9035.754635 7782.863207
2014 9912.670000 24.294523
2015 3604.796763 6940.207536
2016 9613.248853 3085.015221
2017 6869.476254 9558.991611
2018 8631.156772 1763.699135
2019 8734.017251 4027.675648
2020 5957.213271 8086.010515
2021 889.658581 7633.045526
2022 8806.762787 9980.343141
2023 1136.864845 4172.868403
2024 3792.766480 1074.890913
2025 4590.129261 8231.905456
2026 2775.113638 315.172272
2027 4585.140519 1200.060348
2028 9625.485219 8390.735670
2029 6506.151988 6411.460170
2030 5685.401827 5930.879049
2031 2209.899330 2267.391554
2032 7313.203210 634.882877
2033 7099.397296 4867.950075
2034 7063.729914 2783.682014
2035 767.828307 3192.521731
2036 9995.909817 1676.927417
2037 4583.367010 8518.817367
2038 9305.625436 7636.622184
2039 6662.247502 8462.551258
2040 5545.710350 72.700557
2041 5391.618060 5324.403562
2042 6658.320610 1006.940764
2043 8569.704053 3904.762699
2044 3823.834366 8511.989477
2045 3806.121474 5801.595513
2046 3584.365909 2189.323174
2047 4803.540089 9904.429122
2048 6789.044113 2855.397783
2049 3671.543747 7169.427508
2050 7011.870209 4561.956817
2051 9136.112231 2075.451596
2052 9394.785479 3553.633720
2053 988.129498 1867.664992
2054 3823.105606 9169.574567
2055 2152.247991 6080.817994
2056 9399.536747 2319.134494
2057 3272.733897 8657.987857
2058 5454.317697 2538.708410
2059 2898.665946 7437.071533
2060 2650.175478 8493.866441
2061 6230.304366 844.868413
2062 9750.913706 7220.619585
2063 5908.537328 1469.628381
2064 1365.477085 4044.658022
2065 5306.669110 325.909061
2066 8415.683881 2190.011400
2067 37.715578 3748.758027
2068 503.130119 6353.332011
2069 4283.951575 4570.018407
2070 9006.068881 8469.849743
2071 8993.789582 1224.866548
2072 8131.245646 9231.794951
2073 1744.726573 8550.523592
2074 4480.142224 5201.314616
2075 41.292271 2447.077651
2076 6738.058805 9677.861740
2077 979.510483 9199.394952
2078 8224.298681 2998.880356
2079 9033.380316 6640.828143
2080 3482.713374 6360.294273
2081 2092.315573 7366.253005
2082 7863.372728 9534.327909
2083 233.991909 3919.171907
2084 1706.572605 9950.496493
2085 2578.045702 2319.132660
2086 8064.762166 5139.649623
2087 1391.972629 207.475986
2088 2360.542932 7808.074820
2089 4677.900574 6651.694932
2090 6281.907950 4240.664155
2091 1672.854104 2877.068214
2092 318.273572 6796.610991
2093 9835.018508 4860.786692
2094 7477.841598 3079.536027
2095 8901.579028 7636.534642
2096 1133.898435 4900.540068
2097 2103.745243 6509.887444
2098 9370.892968 7470.136044
2099 5731.514969 1902.238340
2100 6740.990857 2243.425088
2101 5001.787053 9819.990677
2102 8266.172880 2450.156961
2103 3261.143059 2897.769561
2104 4736.948811 7376.047367
2105 8542.301213 6498.833240
2106 5471.382101 9512.279215
2107 600.595035 4917.316462
2108 4765.612859 1833.828039
2109 5336.999087 19.639774
2110 3431.384678 6877.531573
2111 6449.130459 6517.605054
2112 9654.875574 2933.948639
2113 4978.512820 3736.951793
2114 1942.649710 8149.507723
2115 5002.057444 5753.213860
2116 1897.737456 6181.910653
2117 2515.260107 8039.762545
2118 5046.610186 2363.102918
2119 5156.714692 1175.375907
2120 8352.188122 4291.604272
2121 2873.467654 8484.250036
2122 415.864239 6829.798471
2123 758.169096 3116.802024
2124 559.899074 785.374708
2125 2086.958498 910.050239
2126 9838.769004 8088.857374
2127 5458.925658 5515.936839
2128 4286.464998 5797.276113
2129 9245.521483 2678.323077
2130 9350.776134 8123.052970
2131 9235.252848 5376.550228
2132 8898.870466 9871.146106
2133 9854.384416 110.774375
2134 6577.514591 377.402514
2135 722.670113 660.952604
2136 5619.137431 8754.627890
2137 9721.485600 1289.652102
2138 7595.048526 8138.327002
2139 7877.254111 6613.210430
2140 2550.857693 2656.758742
2141 6919.488411 9528.805417
2142 9323.245250 3868.080347
2143 692.276990 8294.934624
2144 7158.068741 1187.133527
2145 9414.992098 2722.922647
2146 883.948822 9293.763074
2147 1856.983584 7224.533434
2148 5638.656559 140.214454
2149 2288.378505 7086.309179
2150 5072.695179 5703.438013
2151 8134.511762 5417.995658
2152 3419.639949 4411.320859
2153 2575.625774 6808.647471
2154 5210.321273 4565.706436
2155 5805.996824 9032.888367
2156 710.736724 6564.469734
2157 6034.458309 2090.145932
2158 2269.426009 5692.732025
2159 1731.076881 5682.596008
2160 3210.094617 1804.998810
2161 1972.268928 1243.545271
2162 9262.345778 4381.797596
2163 2146.098116 8571.731124
2164 4785.439434 9308.205513
2165 4724.387342 3817.272351
2166 7616.257954 9440.443421
2167 8142.651725 196.098901
2168 4756.220043 2040.577718
2169 714.059492 398.338784
2170 6874.887814 7502.403789
2171 625.253775 6336.328126
2172 4053.703238 3994.583598
2173 7656.994291 8266.959403
2174 9407.780298 2616.333600
2175 212.209809 6356.893602
2176 2616.805129 2323.705327
2177 2542.320730 2428.338684
2178 923.742923 3005.020544
2179 4791.783009 6162.506734
2180 9808.603279 2249.766267
2181 1486.045370 338.065808
2182 1721.925102 4876.639369
2183 9471.529696 8521.310086
2184 4495.606197 4308.521337
2185 9101.238195 4979.756407
2186 9809.107197 8134.451238
2187 4680.142142 195.587674
2188 1456.740752 7369.630121
2189 8228.162883 4107.112344
2190 2675.765740 6713.874358
2191 1533.194968 404.286776
2192 4648.298029 661.469254
2193 9910.013046 4151.737709
2194 4958.822956 9414.486767
2195 1418.147840 2101.625414
2196 6983.382311 2086.718668
2197 3303.828517 3273.914048
2198 416.781692 851.512994
2199 7083.546137 8148.978470
2200 124.238174 2849.089109
2201 5516.846174 3886.158629
2202 9407.372635 6712.753612
2203 6605.831082 6087.492241
2204 1941.307556 3942.744518
2205 2869.994977 5811.148627
2206 6801.499770 4478.667202
2207 7641.454426 4697.679171
2208 5206.449803 5550.739386
2209 739.332525 3840.203548
2210 128.383608 5001.626917
2211 1099.069299 190.726411
2212 6816.102488 1211.172432
2213 7667.063243 2400.737068
2214 6072.064865 3023.004964
2215 1062.752293 2228.333306
2216 1450.446876 7379.545264
2217 3771.689558 4836.517136
2218 3249.895390 7175.231008
2219 7346.240446 7216.398383
2220 9519.810999 7191.717244
2221 6529.547792 4425.315957
2222 816.308655 1975.478315
2223 4875.093563 9620.691464
2224 6008.717209 6034.945693
2225 2791.718715 7299.682639
2226 7374.657132 9709.676302
2227 9788.141989 856.060844
2228 6738.018901 3298.572882
2229 7274.798784 6050.480622
2230 5698.703445 4727.670561
2231 4559.219219 5013.969191
2232 7136.846361 4855.714614
2233 3756.520293 164.874723
2234 5815.202298 5426.782677
2235 4897.887115 4070.992405
2236 5106.066023 3370.649599
2237 9720.964046 3578.500135
2238 260.012294 2836.956820
2239 9577.902602 4579.709787
2240 2097.968438 3078.384012
2241 6025.530969 8673.976760
2242 9611.043150 7698.986417
2243 6599.091829 7700.039530
2244 2120.235217 1905.316009
2245 9553.426573 1905.169614
2246 763.217044 7464.665216
2247 9799.215000 6842.320468
2248 9408.236416 5161.782411
2249 3277.152203 1435.440713
2250 2623.040981 1789.250336
2251 7036.202541 9965.045004
2252 2069.277876 7141.203920
2253 9851.899169 4303.939450
2254 838.256662 4333.268950
2255 5852.342526 4711.608859
2256 8689.496855 3675.776646
2257 3097.193434 8845.597683
2258 7801.584989 4568.850704
2259 5957.216517 1314.352426
2260 3581.961911 9381.028860
2261 4550.443826 446.708661
2262 2358.447276 7587.265619
2263 9870.177246 6017.998844
2264 9275.583858 8423.999408
2265 9027.244805 9670.352194
2266 1702.003807 1656.842165
2267 8818.025326 9552.022365
2268 1283.044516 3443.518559
2269 4570.511394 2790.839518
2270 8153.798525 2029.190954
2271 7421.135302 5172.766961
2272 7821.543789 478.158636
2273 4.263584 4599.313224
2274 7598.755518 3389.684469
2275 8351.345054 7077.957227
2276 1315.633763 378.172905
2277 2839.779092 5970.797809
2278 5161.072934 289.603474
2279 4943.517416 9590.801460
2280 6627.763109 8129.928815
2281 2416.381603 849.241613
2282 1924.997713 4045.916682
2283 9294.499522 8022.699883
2284 7243.595251 2680.452127
2285 9555.579250 7619.558087
2286 248.725099 8291.159735
2287 5228.612284 2096.166617
2288 8143.505364 8658.180800
2289 7566.196680 8731.444441
2290 8776.901042 1425.278273
2291 1831.941483 6487.322066
2292 5465.969291 8199.210175
2293 5725.590160 4252.572128
2294 1860.841819 5964.308966
2295 6826.027621 3378.061130
2296 1058.154968 8126.851373
2297 2562.058026 3877.025416
2298 900.560401 4810.640240
2299 1381.016561 664.014898
2300 9608.273246 8382.397275
2301 2576.904678 7159.889542
2302 7314.260651 2980.573181
2303 5899.788647 9471.301198
2304 744.822786 2769.494986
2305 4193.863926 4390.285960
2306 2846.732219 7697.585743
2307 1931.254555 2627.063225
2308 6047.299754 5818.126698
2309 8513.919759 405.144584
2310 396.317505 7872.784550
2311 4914.998186 907.215541
2312 3323.865408 8038.968675
2313 1783.520436 9026.482348
2314 8993.324983 2601.602102
2315 4425.822147 4961.437431
2316 9435.509678 9081.435956
2317 9541.543313 4929.276248
2318 5015.674605 1386.779589
2319 2549.059192 6279.753196
2320 229.069925 215.620576
2321 4423.434993 3231.408809
2322 3809.776896 1103.340796
2323 7238.163121 958.908856
2324 2501.370019 5399.667900
2325 2799.036988 3803.494865
2326 2413.534886 9973.230331
2327 1236.071886 8383.323487
2328 7472.573829 1870.873827
2329 3926.886222 8838.009811
2330 9678.709071 2991.743447
2331 5781.036753 6807.965924
2332 3864.013981 9620.677823
2333 3433.642781 7668.200582
2334 1060.463433 4547.701157
2335 1767.975403 8353.716650
2336 657.720264 6066.964817
2337 570.703716 220.779086
2338 5014.674759 8035.306242
2339 9512.723498 1023.484458
2340 1358.795939 4480.070787
2341 6109.032397 7579.607637
2342 8696.527488 5573.636540
2343 5830.546238 1628.004917
2344 897.849982 615.080600
2345 6043.990596 7560.034473
2346 7872.668129 7405.861608
2347 8708.161119 8030.282273
2348 631.933822 1639.550076
2349 1333.016508 1859.811596
2350 7372.681814 3034.064249
2351 871.169680 1859.670227
2352 2771.468661 7039.347293
2353 717.218044 5330.504739
2354 6947.864723 4205.793514
2355 2206.826643 9928.447562
2356 2392.868323 3220.144464
2357 3590.520952 3818.593015
2358 258.030118 2944.211576
2359 1636.781338 1341.124124
2360 109.152630 9484.183541
2361 4430.864204 1703.508941
2362 7547.927281 2807.484802
2363 4364.544571 5500.338324
2364 5494.493788 9188.200777
2365 1162.667394 7686.467806
2366 355.506372 5925.878529
2367 4283.724715 4199.132189
2368 4507.932470 847.893575
2369 5674.168895 6604.524680
2370 109.046163 6537.451340
2371 8340.054567 5373.485685
2372 7238.401385 8453.229764
2373 331.090629 6828.147437
2374 446.469250 720.345683
2375 9575.637502 5894.976986
2376 5927.839870 4841.219985
2377 2097.326960 1554.385979
2378 9317.144999 7601.493984
2379 1775.672977 9798.000828
2380 7445.524710 1186.354254
2381 3298.534958 5786.359762
2382 1592.364549 9676.712545
2383 2407.498965 8053.607764
2384 2952.468905 973.748948
2385 5496.416840 1277.460827
2386 5221.108582 9056.468332
2387 8985.173150 449.862286
2388 4051.297611 756.906941
2389 5683.786671 64.864106
2390 9647.462165 3091.248865
2391 4079.561013 988.181374
2392 969.019474 6087.979437
2393 7546.580251 4288.333207
2394 5106.219668 5137.870913
2395 9241.986602 9712.303566
2396 666.032198 6948.275125
2397 2613.036897 5012.921064
2398 1862.068755 4615.381278
2399 6357.725656 9276.948490
2400 4262.497884 4590.816374
2401 9301.937375 590.462643
2402 1919.372682 1775.282722
2403 2823.804921 2832.607759
2404 9553.160982 3868.325323
2405 2406.364608 168.168982
2406 8568.546119 5613.389485
2407 1324.550418 1230.989959
2408 7564.417728 2423.779608
2409 1466.098027 5305.826382
2410 9077.219276 8924.790396
2411 8410.946425 371.248662
2412 182.607741 6764.976389
2413 2962.208400 2985.495747
2414 293.846223 2029.661362
2415 393.260304 7757.562992
2416 2719.807068 7784.826059
2417 4187.020071 8802.557870
2418 3373.804345 9256.793962
2419 2810.200826 7565.172192
2420 1235.707435 169.274370
2421 6548.641360 6522.323738
2422 231.691564 2881.113525
2423 4889.488689 64.713899
2424 848.963582 2065.306698
2425 9819.861476 6083.173250
2426 4233.774976 2896.978035
2427 2857.143472 1740.965709
2428 2954.437526 3379.714172
2429 6572.563059 3719.702565
2430 7712.476864 4028.939847
2431 438.633532 7894.671076
2432 1109.923691 1320.596893
2433 8409.077649 6173.671341
2434 982.576411 4617.207644
2435 9981.755545 9862.237042
2436 1814.436508 5951.624814
2437 5209.726926 4027.808092
2438 6843.652404 3932.941846
2439 4307.368733 2386.356628
2440 4511.908701 9582.373393
2441 9371.585432 1086.486038
2442 4437.894790 1956.508440
2443 1309.173141 209.420145
2444 9412.256092 979.208991
2445 6269.155855 6061.902992
2446 6249.437767 171.241040
2447 2013.872580 8067.170935
2448 7064.547518 1397.774558
2449 3844.564544 6513.591095
2450 8409.073211 4876.889034
2451 2339.008045 6756.850042
2452 4359.856280 1042.230666
2453 6884.126386 2610.920324
2454 2908.922396 1237.548919
2455 8322.537196 74.144636
2456 9582.597354 5463.872756
2457 4445.902305 8817.761780
2458 8891.393319 5251.930599
2459 4699.704084 63.420413
2460 3940.519601 7067.149771
2461 8076.577544 6804.441074
2462 571.079507 6834.736131
2463 9070.830940 9100.178365
2464 5899.151525 4695.087482
2465 4731.677645 8019.323484
2466 4325.539156 356.610778
2467 9741.456345 662.880084
2468 3867.478781 521.038734
2469 7075.720075 1146.058941
2470 230.478670 4576.985132
2471 3070.642535 1052.088180
2472 4331.996291 5293.767131
2473 1079.151580 6356.714966
2474 7442.090868 7722.487200
2475 6606.067396 5981.394444
2476 7647.367213 931.332891
2477 506.295013 2341.030942
2478 808.805044 7277.487247
2479 5182.658764 6423.862285
2480 7392.395239 9511.076099
2481 689.715218 7781.998941
2482 3467.586096 1547.881329
2483 5362.562900 666.730606
2484 9415.270120 6790.590410
2485 5184.816363 6863.427756
2486 4313.683118 7007.728793
2487 3123.539036 9112.930818
2488 7740.443071 4754.577186
2489 2547.289588 7721.880945
2490 3245.434683 4605.109086
2491 9581.648117 9610.627021
2492 2075.969061 9621.859497
2493 117.706736 179.051137
2494 9147.248190 9000.870812
2495 7115.693408 2395.313035
2496 6623.546455 451.723168
2497 9390.958331 6191.530916
2498 5524.800641 8891.058292
2499 6100.950996 6933.514833
2500 6176.623508 6347.996821
2501 7526.220231 1178.318413
2502 5886.621689 9618.795771
2503 3843.442226 3031.038491
2504 6139.139287 134.066538
2505 714.773801 6471.582456
2506 652.144549 3345.837245
2507 3011.680261 7087.267217
2508 1699.871608 855.003535
2509 9617.102518 6742.450023
2510 6313.853002 1016.564920
2511 5333.046352 4687.387629
2512 2869.209716 6873.661870
2513 8280.594636 4161.516919
2514 7442.986971 7807.665417
2515 1427.544096 9843.874918
2516 8708.016352 862.066043
2517 4618.293757 5459.563153
2518 5440.760763 7348.361272
2519 213.604264 2788.291691
2520 3491.148463 4344.562688
2521 2395.345794 8508.969568
2522 3392.732119 9886.277954
2523 7236.618553 5788.226913
2524 5611.414931 499.021319
2525 5236.077696 2052.460212
2526 2490.833705 8015.705413
2527 8750.823133 824.885513
2528 8582.280068 5534.461358
2529 8301.166748 487.098241
2530 1793.462881 2858.213411
2531 8021.002322 250.324005
2532 2325.140265 1137.427734
2533 6263.342286 4451.780876
2534 4968.963890 9623.627860
2535 9659.230693 6276.166696
2536 5688.202021 6366.806561
2537 5475.828698 2501.246934
2538 3823.277956 205.984443
2539 5439.015257 2455.095351
2540 2762.500104 6550.164904
2541 8779.446103 4579.387272
2542 8487.012978 2327.477612
2543 2464.994204 3228.116163
2544 8072.956738 323.275769
2545 826.842335 6660.671487
2546 4421.327517 8129.854066
2547 5815.527796 328.700596
2548 8762.261618 7947.348779
2549 8611.564014 1353.125086
2550 2617.864631 1185.713687
2551 7195.763792 2122.717945
2552 2243.793377 4078.210773
2553 5298.797590 9412.269587
2554 7899.334644 6270.169299
2555 4803.826744 1982.442202
2556 1920.439821 7270.804070
2557 8927.747545 1203.529153
2558 893.215029 24.602914
2559 651.028518 101.792187
2560 9512.381394 976.341033
2561 3514.203981 2669.463733
2562 2596.012751 4515.905322
2563 3499.525900 3334.888181
2564 6379.578479 704.104448
2565 4156.617473 8302.317289
2566 5307.774923 9987.706209
2567 8640.845748 3833.838814
2568 8672.861699 9001.458627
2569 1942.423461 1729.379760
2570 7451.069498 2059.431436
2571 8460.953504 2824.314829
2572 5265.257289 388.683736
2573 8773.300946 4387.862064
2574 2086.452354 9096.165091
2575 8606.626055 7286.737224
2576 9814.010322 7378.106831
2577 1192.388388 456.443067
2578 4205.735822 7564.980223
2579 9212.022538 6124.438539
2580 5815.299584 1605.831206
2581 1903.778260 5724.849929
2582 4279.329080 6133.839002
2583 7997.358739 5146.922629
2584 6035.140898 3267.741105
2585 4374.639566 8895.689826
2586 654.777301 3943.750198
2587 4997.854235 3370.254818
2588 2326.651569 8112.828740
2589 3582.959660 9015.371394
2590 4525.215405 6758.170943
2591 6814.549396 835.950771
2592 8683.607115 4651.545739
2593 8910.301982 8362.069148
2594 5113.346454 9254.791874
2595 5833.814163 4429.980949
2596 2465.187417 7928.359826
2597 1588.406330 4235.918140
2598 6614.057533 9485.196737
2599 3454.098071 91.088246
2600 4655.477647 8980.240504
2601 9963.161111 4268.675669
2602 1258.877165 3646.823446
2603 5366.977143 6381.506714
2604 3656.976196 434.410124
2605 2817.975063 1268.246481
2606 3368.916556 6192.632785
2607 4003.553191 3614.722380
2608 3254.266074 6214.922384
2609 686.897635 9857.810399
2610 1568.144501 8768.419869
2611 662.425915 2028.750582
2612 1061.966650 3973.735316
2613 7755.695612 9933.392192
2614 6577.129969 166.718347
2615 331.258607 4088.019490
2616 1217.738338 2907.231887
2617 8526.354845 2176.107459
2618 9218.150659 4598.562988
2619 6785.087996 2417.267463
2620 8830.114459 2671.543336
2621 6600.657303 6203.532018
2622 6436.378801 1260.740096
2623 2130.555432 1703.926120
2624 6671.684545 4306.502489
2625 8823.789730 2192.617472
2626 7903.270262 8404.993427
2627 2483.976280 3655.285747
2628 1149.388635 5818.549133
2629 7244.910976 6281.809048
2630 4034.690821 9708.438451
2631 5535.575396 236.878586
2632 5913.349822 2464.706249
2633 9468.680091 8437.317742
2634 4054.747179 9127.131025
2635 4601.873598 6439.672458
2636 9998.914856 2777.311218
2637 5307.444299 3103.681450
2638 5713.271533 6895.986127
2639 2177.992329 1600.982020
2640 9698.198738 3948.104768
2641 7308.216626 2030.584804
2642 9814.585826 7021.776632
2643 8273.992642 4057.841089
2644 8429.362958 1223.635883
2645 2008.943872 7512.221391
2646 8222.266438 2966.451128
2647 2842.753469 6854.648935
2648 1802.375123 1348.322611
2649 5482.033086 311.179410
2650 7722.669907 8569.272297
2651 3911.607330 8028.652862
2652 677.071901 350.609268
2653 7800.018691 4073.592655
2654 3203.554356 3370.297109
2655 5054.411968 3565.993085
2656 3471.208583 1668.187216
2657 9910.581194 2778.259369
2658 9907.061081 2859.676465
2659 2495.628263 217.211258
2660 4730.530856 305.375631
2661 4238.267785 4925.999232
2662 6765.438777 521.469196
2663 4771.610562 5087.899279
2664 411.027669 7691.987272
2665 5248.939652 912.831048
2666 9734.195716 5053.152886
2667 5226.233766 9795.825871
2668 4019.386873 3805.651017
2669 8827.995862 2177.930589
2670 6017.521971 9230.692977
2671 7583.179309 1020.708642
2672 5041.725262 6569.249401
2673 8292.350041 7169.051625
2674 1967.969498 8552.224600
2675 3067.975868 9033.071343
2676 8956.448909 1106.038138
2677 3845.378431 1293.439351
2678 2135.625218 5659.180849
2679 6240.625669 5149.210403
2680 4864.616198 7158.725601
2681 503.680729 6823.480128
2682 297.302105 3472.835195
2683 7462.113643 9656.128192
2684 7931.597428 258.977169
2685 6777.180661 3947.166990
2686 8986.020797 1214.737914
2687 4190.653183 375.628301
2688 4292.991017 57.106451
2689 4414.260409 351.885337
2690 2451.222490 3451.028350
2691 9994.159499 9851.709110
2692 220.266291 7097.039227
2693 6052.059338 773.836868
2694 9878.099763 2289.458055
2695 5195.683626 926.251061
2696 4406.994347 5152.648947
2697 666.826241 4296.815807
2698 2291.322129 2280.416161
2699 4786.481530 6812.692000
2700 9579.754891 7120.070888
2701 40.866585 5374.598293
2702 6547.870585 3979.327621
2703 7633.584483 551.813917
2704 1841.458386 8055.589325
2705 4685.779395 4171.346235
2706 852.794968 7070.430840
2707 9867.334008 1460.241253
2708 5384.512206 2266.720734
2709 1999.354762 648.819801
2710 8875.517078 9030.617809
2711 7575.758586 5154.851221
2712 3418.168679 1668.131389
2713 9665.585738 1187.755278
2714 6888.646135 872.344813
2715 8128.264399 6275.710374
2716 2295.779667 9876.220560
2717 9087.614638 6858.069363
2718 35.910291 6229.284679
2719 7964.809451 9894.130040
2720 5293.087878 635.977913
2721 5943.306695 2122.643269
2722 5581.723828 6169.314780
2723 5708.693658 5696.623465
2724 7506.122046 2481.931569
2725 5205.155960 6381.517177
2726 9725.582027 6019.247137
2727 9022.042229 5099.182572
2728 7597.656329 3634.589399
2729 3195.031169 3274.224948
2730 2077.257746 9216.222500
2731 7277.091106 604.925361
2732 9834.873309 2193.205821
2733 3385.797337 719.822550
2734 5162.002872 7466.184088
2735 1720.853262 1044.224792
2736 1447.825969 5441.496492
2737 4247.572761 8160.793237
2738 8209.967411 4124.183954
2739 1513.924403 941.106628
2740 7284.733625 3869.977355
2741 3789.641051 116.038246
2742 8525.077055 4626.037882
2743 7187.471681 4807.558583
2744 1174.543196 6595.283528
2745 8134.330679 3432.734118
2746 1831.956803 8407.321759
2747 341.324983 5804.638639
2748 1986.521273 5060.601412
2749 1020.404403 698.241850
2750 6086.990802 7717.205238
2751 5480.533473 212.877259
2752 2344.229928 5711.591914
2753 9463.511624 595.278355
2754 8878.309840 5883.613578
2755 6231.119535 4272.154730
2756 5369.552402 7706.302397
2757 9404.384708 7549.420785
2758 1659.580973 4824.656982
2759 7117.392315 1728.334888
2760 2576.407294 753.624876
2761 9099.119294 2644.296089
2762 1787.166453 7243.108693
2763 7361.987429 6820.404017
2764 5718.120677 3653.090085
2765 1907.312341 9097.190669
2766 8109.427663 9125.865876
2767 1419.427347 2001.907590
2768 8350.560905 4671.903366
2769 8926.877991 1506.581531
2770 4454.867153 1647.636726
2771 7228.712944 4533.793283
2772 808.887788 687.550866
2773 1541.245785 3908.109288
2774 3180.327210 3367.745407
2775 6567.465483 8994.793120
2776 7739.189555 5369.588241
2777 9100.321579 7100.967739
2778 1480.731296 6510.409533
2779 925.798437 8121.487062
2780 5696.064836 8881.643288
2781 6936.545453 7544.525256
2782 1836.282687 1556.499179
2783 0.149398 971.313611
2784 8176.505577 2525.621841
2785 7879.216438 3059.361728
2786 5285.984181 8358.011002
2787 3080.653210 5324.715056
2788 2650.998290 3635.232154
2789 3442.310104 4345.283108
2790 7482.188996 808.609426
2791 2531.692654 2109.358627
2792 8448.240270 4407.598103
2793 7094.055249 8027.998930
2794 392.621245 6183.016769
2795 5318.081762 846.101869
2796 3213.024420 2350.435380
2797 1446.282901 5855.450137
2798 7782.395206 6853.927604
2799 9177.008236 7855.555358
2800 5842.398676 2476.178784
2801 2400.042856 5803.251180
2802 8440.157678 6877.742087
2803 5161.779840 1557.739106
2804 214.549209 274.638376
2805 2598.118461 4544.494820
2806 4097.227426 3508.784619
2807 9611.879796 4084.810283
2808 1256.580925 4060.121226
2809 1138.670205 1438.090051
2810 1608.280655 9123.369414
2811 4069.690351 9579.544890
2812 1305.424117 4336.824749
2813 9336.835696 4450.947976
2814 440.194235 3498.169434
2815 7100.670313 3891.666494
2816 7944.437452 905.387827
2817 9818.021932 1410.836901
2818 4387.040512 1396.163232
2819 3151.322164 5536.704911
2820 7672.054835 1552.256797
2821 2151.924902 4219.034854
2822 6149.687105 6309.951291
2823 3679.621859 4805.300280
2824 7389.728375 2123.563154
2825 4706.199185 5857.082567
2826 380.746099 904.347243
2827 1553.790496 154.949162
2828 634.659051 9896.756088
2829 4222.013939 2930.507795
2830 6292.461721 3629.048131
2831 7273.347656 4039.226589
2832 6550.493213 3330.087064
2833 4184.846449 7363.154101
2834 5774.688713 3554.428778
2835 7217.291890 3116.326690
2836 8925.731145 2651.601230
2837 5671.332114 6396.293256
2838 5820.018710 1923.251555
2839 9795.621305 2859.895341
2840 7245.267474 605.824154
2841 7052.281128 7340.999839
2842 3757.875683 840.100609
2843 9387.688869 2260.787224
2844 2935.797286 9604.512498
2845 3982.182117 1830.653983
2846 6580.354514 5872.251393
2847 4582.814345 6121.771980
2848 7211.658044 6216.271922
2849 4373.892560 9812.670992
2850 9602.518498 9182.974186
2851 232.630255 5715.004177
2852 4761.980978 3010.027052
2853 6176.911547 2879.080502
2854 9038.122800 2547.821910
2855 234.159513 9658.789851
2856 3747.640593 2654.436107
2857 6966.957623 2335.672239
2858 1780.786680 2577.955345
2859 9726.242119 8723.808915
2860 8517.891204 5146.634948
2861 8538.465085 7073.241491
2862 8051.415865 6760.049227
2863 512.643332 1376.150646
2864 3889.643784 3187.610699
2865 6304.417547 9987.455668
2866 3050.849161 2263.029720
2867 1965.589867 5576.332528
2868 8107.938459 2505.425408
2869 280.338960 7514.844017
2870 7191.099894 8999.199713
2871 4261.109029 6976.337317
2872 6999.787417 9079.002951
2873 8729.872431 4933.582147
2874 3027.786042 7157.935911
2875 1178.259539 8130.484780
2876 2275.926803 2492.033990
2877 8171.034171 2725.399374
2878 1881.103083 7805.565616
2879 2808.365031 403.521551
2880 4063.270677 4528.194268
2881 364.432177 6796.904748
2882 3586.880616 1713.441060
2883 1478.475004 1943.840393
2884 1157.628106 3307.929551
2885 806.643923 5840.556520
2886 5767.133632 4180.212740
2887 3028.062667 1716.244520
2888 7465.275137 2285.913348
2889 7734.955137 1954.583414
2890 4309.911038 6235.385958
2891 7179.863446 7023.525593
2892 7351.065644 3681.593166
2893 7127.370176 1125.728877
2894 3735.830664 5817.963526
2895 1653.332369 2660.965528
2896 323.439194 9870.023932
2897 4041.667363 6749.396837
2898 6822.469727 4942.813439
2899 1190.922429 2390.962643
2900 930.968779 4435.969175
2901 7527.734108 2091.037247
2902 3365.075621 2590.928133
2903 3923.329278 287.520443
2904 6047.552701 8535.940621
2905 546.887405 8721.700491
2906 7377.169196 2955.390508
2907 6702.130663 1935.002072
2908 344.187414 3971.606608
2909 7077.797831 1598.625216
2910 2229.668543 2633.958102
2911 8151.013880 5325.186490
2912 158.910405 3165.315048
2913 4952.863074 5644.603965
2914 7398.055240 5269.174359
2915 530.872995 6716.451854
2916 977.967207 6223.580990
2917 9884.507758 7674.223475
2918 9163.229437 6296.397543
2919 218.790559 8624.948230
2920 8484.553638 7644.043687
2921 8512.080593 5092.576588
2922 6659.655119 5310.757459
2923 6256.365124 6758.480022
2924 2085.627729 7443.026554
2925 8249.451271 1414.725608
2926 7064.635853 1951.863382
2927 5365.142904 1381.017986
2928 9893.578994 6058.573978
2929 3811.298340 1540.376888
2930 4278.430627 7959.837152
2931 9561.441138 7370.461275
2932 2856.771253 798.702034
2933 3031.914090 9874.090191
2934 4358.300882 4431.107740
2935 4316.314007 1523.905114
2936 3969.511601 9736.485937
2937 2609.747043 4243.205811
2938 5043.518399 6198.329466
2939 8452.338946 7617.431402
2940 5064.821634 3711.191045
2941 4896.421837 5856.187457
2942 2432.757693 8440.647986
2943 6660.585243 7828.085217
2944 2041.418101 3623.139324
2945 2498.058738 9250.604026
2946 4898.703003 2604.708075
2947 9874.684919 590.164734
2948 8568.175602 7813.083452
2949 7577.220847 5838.010160
2950 6557.541777 8560.118212
2951 5879.935052 8766.561947
2952 8021.319298 6998.409414
2953 6444.284324 3781.864873
2954 9895.408766 2168.960129
2955 3961.908535 4996.667396
2956 4931.138957 8679.276526
2957 2650.303125 2213.952589
2958 8354.923945 4021.748472
2959 5805.033147 1120.334593
2960 1223.806756 1501.983145
2961 6310.830891 4319.707674
2962 7084.366841 2384.932903
2963 7641.774806 7300.844690
2964 640.838060 2547.585182
2965 7946.230312 3333.777008
2966 4709.424041 1139.083775
2967 2258.586097 7205.583813
2968 7794.743253 1796.450261
2969 650.903885 7176.783548
2970 6317.543051 2115.686774
2971 6681.719055 3044.366639
2972 1612.189707 2639.255677
2973 1871.854503 4984.935645
2974 8095.639668 6985.464585
2975 252.549554 4895.835862
2976 7668.520289 9439.709854
2977 1706.488393 3823.380692
2978 4878.208434 7883.773670
2979 7986.478964 3037.737398
2980 3296.708002 5021.135330
2981 6973.009489 2129.490596
2982 5392.399449 9910.409258
2983 956.863842 2898.734829
2984 5605.649266 4857.543653
2985 1427.684741 5331.249218
2986 86.630779 4606.847939
2987 8306.359574 6301.221012
2988 8552.074342 2705.230852
2989 7297.289099 3424.377675
2990 5008.337052 6553.017504
2991 9827.445402 8865.123489
2992 9511.957402 1495.519604
2993 5795.081564 6361.144490
2994 6176.403526 3944.434046
2995 1067.585241 1662.958630
2996 7478.984192 6411.899024
2997 2029.290024 1500.057621
2998 5298.287523 9535.131298
2999 4291.630594 1573.977152
3000 4224.049483 1645.463265
EOF
