NAME : scale_uniform_euclidean_n1000
TYPE : TSP
DIMENSION : 1000
EDGE_WEIGHT_TYPE : EUC_2D
NODE_COORD_SECTION
1 2330.654738 7830.144644
2 4553.051301 5016.947568
3 8394.352573 5049.577428
4 3431.819483 5209.474061
5 5907.232170 647.191104
6 4887.517002 6576.033265
7 5837.835730 268.275784
8 6589.648712 8731.670916
9 6944.949454 2984.625915
10 9480.519470 7655.270726
11 6265.472637 5143.035185
12 7112.622984 8338.690033
13 6798.009921 388.477836
14 2573.444759 7841.049051
15 8348.243847 8009.470675
16 2209.648250 9395.802182
17 185.865518 5981.496173
18 8238.780231 225.244172
19 3481.603458 1824.573053
20 3290.239247 9133.184962
21 4948.710158 233.402647
22 2484.699438 1927.591666
23 6717.826350 1218.740292
24 753.354768 2666.988176
25 907.517507 5118.244943
26 4275.049413 8956.929479
27 7068.953107 2517.819390
28 2768.500369 7367.165296
29 2378.249528 3341.443325
30 6435.952795 9329.007825
31 4205.164846 2771.035060
32 8336.530274 2678.578176
33 5001.986339 2351.921980
34 3882.483744 487.551813
35 2827.276262 7915.376581
36 9266.794598 533.719656
37 2576.099840 7765.707879
38 9607.929117 768.002286
39 2286.257576 5128.592486
40 9407.429112 3259.914832
41 8894.916126 2081.971571
42 6408.203308 2392.130003
43 2426.440874 3872.609705
44 2772.574231 7770.160623
45 5194.896616 9155.784170
46 7527.412125 5283.641502
47 9697.949632 8379.400474
48 3639.231711 1386.783204
49 6362.946934 4666.428206
50 4287.060602 6199.480149
51 2678.021339 4938.372858
52 3382.336247 2656.192339
53 8393.661338 5415.538745
54 5458.202945 9519.324768
55 6795.204281 3238.459819
56 2884.410079 7839.560542
57 6759.372308 5484.241495
58 4225.497746 3128.504972
59 7675.220682 8377.666033
60 3659.856256 2491.079863
61 3003.497468 8960.149032
62 3177.150266 5353.025014
63 229.231185 8394.756761
64 9177.097881 7045.816790
65 9145.194099 3416.023753
66 1790.374657 1830.513625
67 1772.761343 9737.134380
68 1267.784669 8146.666015
69 8340.916108 9147.996974
70 2504.886850 2058.140059
71 2110.316804 4743.009983
72 5823.883818 7928.113393
73 7754.079772 9992.262096
74 3475.446681 6103.756215
75 9452.112731 8285.582981
76 5460.349903 8984.562709
77 4719.116190 1243.053130
78 7314.049943 8349.745285
79 7659.327602 6516.870077
80 5357.602488 1531.383581
81 4252.411001 8593.641257
82 661.987387 9126.362796
83 3184.386392 7508.648329
84 8836.525080 8497.213543
85 1699.042703 2296.870403
86 7585.625510 717.760054
87 3354.915995 2826.857006
88 398.219031 6434.276132
89 4110.038887 9756.291823
90 145.263948 938.119573
91 5795.162427 7388.508599
92 6386.155862 1197.167313
93 4415.597143 3459.347513
94 1731.698406 7516.463431
95 6205.521419 1746.127036
96 8433.026565 5302.687761
97 369.357571 3064.854723
98 9584.433334 234.766820
99 6446.652120 4949.297314
100 7034.505794 3169.159593
101 2005.601684 3128.866018
102 8178.889354 3008.255782
103 3347.352244 8920.670197
104 2745.655854 76.696762
105 7774.511560 5761.934543
106 6616.354625 8842.668704
107 9562.539099 1676.148299
108 4372.483949 3076.743048
109 6873.171472 8237.023635
110 2914.238481 9916.018925
111 5540.158677 4543.645824
112 8812.238315 2071.126394
113 3542.417540 1483.026153
114 1195.996417 3663.512595
115 2853.181649 838.204877
116 6541.709934 7282.102868
117 4770.118399 7292.612640
118 2311.938735 9205.705455
119 6401.373943 9520.492131
120 9759.326168 244.051596
121 4452.843270 6619.043191
122 8297.203783 79.801543
123 7171.842503 4853.218530
124 4105.367478 9622.400061
125 2967.134565 3450.051002
126 4020.192146 3157.900770
127 903.811632 8921.617194
128 1160.475459 9193.266970
129 8214.010738 9746.561188
130 8270.885114 4220.941877
131 6628.873925 9429.226965
132 7572.053117 7482.966843
133 9774.504853 7937.548990
134 8319.432650 6892.038802
135 8800.920388 1114.030059
136 9539.586888 9930.657066
137 3540.248220 9900.374456
138 5764.587976 2836.228946
139 4685.226166 4993.050446
140 9787.204360 3021.542804
141 4248.734691 826.517836
142 5052.440938 8312.172810
143 1107.859216 9657.991018
144 6151.616898 3161.514994
145 4916.120396 7947.829402
146 1348.470597 937.372265
147 3559.251435 7338.125383
148 8783.847555 9677.889729
149 951.330648 377.516429
150 1226.347124 6096.562558
151 5118.374867 438.719715
152 1132.467345 9945.227448
153 3524.754449 3529.672462
154 2246.239115 6912.311364
155 5359.750329 3272.563993
156 1224.735454 1336.873566
157 3744.007161 1918.440527
158 768.186275 371.322431
159 8606.516525 663.875587
160 948.020473 1106.978294
161 8854.962092 1324.714582
162 5821.684222 7410.083383
163 8920.172988 8515.100121
164 409.878470 5217.965968
165 5003.512617 7939.380089
166 4232.097852 4485.542383
167 1856.239909 1959.936349
168 3188.168370 62.789606
169 4003.144111 154.003368
170 3715.831983 4156.443679
171 8533.065211 9029.909507
172 8506.467083 5849.804039
173 8646.222060 7604.605099
174 7549.221511 7085.732590
175 4710.816071 4691.794489
176 6265.289182 4314.494256
177 803.679070 5648.289333
178 551.480380 511.681368
179 6657.017831 4635.599259
180 1025.772034 6414.148708
181 8505.006136 9614.368432
182 8571.764915 1443.256854
183 9567.134404 8228.634763
184 2506.270783 6923.683034
185 941.092504 7506.469662
186 7527.183824 5527.320441
187 195.074478 1204.356849
188 1578.487395 6825.867883
189 9869.179432 7403.876234
190 8967.164404 8505.983781
191 7281.567189 732.544478
192 2921.365183 4496.776047
193 2968.416278 1237.465913
194 177.679835 6761.485068
195 3817.232366 2996.898011
196 777.772099 8965.977769
197 7930.787829 3520.039051
198 8274.587642 162.374191
199 3277.941302 8093.062601
200 8237.086215 4920.443984
201 811.074497 2916.228912
202 2519.048924 5547.436221
203 6586.135621 2587.232206
204 3161.989035 8866.086081
205 414.999625 5206.002559
206 602.760922 7830.120611
207 9096.183114 5381.043100
208 166.455634 1831.802730
209 4518.757237 4581.555578
210 4105.044120 8711.788188
211 5861.825767 8012.516851
212 9062.639693 3448.172305
213 767.320196 8202.785078
214 4022.692930 7281.219059
215 2727.586147 9237.472316
216 2756.681728 7842.830575
217 6916.973452 6619.821436
218 7753.488360 5222.553461
219 2603.813487 7085.750238
220 5763.445123 8904.669735
221 675.049484 7871.633567
222 1063.068817 7176.126197
223 1746.191821 2680.913946
224 1026.923191 3077.891172
225 5726.494191 8319.777109
226 5083.495232 1541.344488
227 6398.069845 1753.311239
228 7127.852858 9672.991601
229 1189.193082 96.180339
230 6904.318148 7706.925649
231 3767.984054 8858.659694
232 1985.727038 2812.068452
233 3938.797672 270.511118
234 3415.586098 3447.119100
235 4319.081147 8488.743734
236 2759.331954 2193.937628
237 2936.508998 5322.379298
238 8299.002403 8088.967524
239 9920.679232 7667.684220
240 5262.470115 159.931751
241 4024.242525 5065.132702
242 7435.604155 4683.271377
243 4268.988155 3628.897065
244 3908.707568 9869.178623
245 3628.207601 320.321948
246 4135.994174 9153.396861
247 5042.477903 223.532603
248 9101.355939 917.682921
249 186.609882 993.192346
250 9366.185971 8966.327072
251 4996.658125 5359.973628
252 5170.669410 8855.410764
253 1042.249235 4054.501085
254 938.643291 7773.794288
255 573.552036 2995.565813
256 4649.185799 3405.145206
257 5555.417501 5051.625914
258 8915.318276 1058.938554
259 5085.073513 7993.750724
260 286.274410 2958.959435
261 3927.730461 9283.864179
262 9207.582409 7632.989269
263 8802.744800 4071.389872
264 7383.322844 4913.990679
265 8400.760986 1053.628106
266 3889.763848 7160.283419
267 3810.777145 6222.836772
268 1045.844964 2432.031419
269 2364.558493 743.373163
270 7395.067106 3122.256735
271 6534.663043 6491.701238
272 1387.771811 3930.070504
273 8364.871493 6417.075954
274 7799.637285 9507.316408
275 5922.396731 5202.376484
276 2368.134444 573.600351
277 9923.329768 6456.913221
278 2130.536484 2837.453575
279 6061.607796 2358.733902
280 5128.928959 9216.395350
281 7560.483087 4563.020909
282 1670.810722 8129.864519
283 9484.857776 8236.546015
284 9929.107273 433.951661
285 9955.937207 2497.157804
286 8942.731364 9738.697941
287 3060.072049 8711.067084
288 9.997318 1171.176165
289 935.475146 9762.863406
290 6046.742424 7782.740277
291 2047.297311 5303.749579
292 5917.971536 8594.104950
293 9213.738781 883.973145
294 4621.940518 4940.540261
295 9846.531047 9990.168774
296 7540.162376 5898.414124
297 3018.606787 8179.703182
298 7123.948401 205.207228
299 9204.885549 8033.543579
300 1546.432111 4624.245178
301 2133.603962 9181.848208
302 7078.905845 8471.804738
303 2660.257512 9644.094825
304 2047.189043 8305.965047
305 1540.108525 4453.641185
306 6627.990123 4092.254278
307 633.195898 7543.641136
308 8690.344891 9804.316146
309 8384.883964 5089.288305
310 3763.128175 2881.821415
311 7862.749041 7442.852433
312 8516.896875 7606.760938
313 5647.176144 8253.469138
314 5026.463296 9477.896835
315 7611.062777 6482.976678
316 1946.254331 7120.146819
317 788.975040 5191.491507
318 8898.265773 9353.974204
319 8852.961963 6044.549283
320 5793.008737 2724.132307
321 3231.294872 4490.134322
322 9238.548218 3754.253776
323 3456.454130 6710.073540
324 7920.844359 1281.236978
325 9739.949424 7650.069472
326 6784.556920 1864.110700
327 7659.220672 6785.345304
328 1745.644483 3559.998846
329 206.414509 8061.822421
330 3111.911872 2863.005648
331 7503.667053 2481.889238
332 5059.787087 6498.315408
333 6147.360811 12.482093
334 7953.383268 120.949027
335 106.047787 6015.484150
336 3624.430434 3539.452674
337 8441.952733 1485.503098
338 1935.663276 2515.682047
339 2641.591961 9110.926800
340 9435.338370 6733.892660
341 9972.950318 336.036941
342 6399.244925 7921.064616
343 8515.838800 6874.608627
344 1576.331801 2158.021579
345 7094.648725 8485.158656
346 7304.954995 1798.505448
347 4285.442394 6073.404597
348 78.571023 5684.819898
349 1927.177919 9956.259932
350 7674.868193 5196.461908
351 8842.253056 3414.017925
352 6199.622146 1149.199998
353 4756.203722 2573.396732
354 5278.974953 6391.037396
355 5717.494590 6873.965385
356 913.161238 7654.884411
357 6873.383733 4559.010978
358 4656.018658 1736.347411
359 5180.721317 8027.497397
360 2517.789256 5206.244798
361 3326.504452 7717.821246
362 8003.373526 6299.429475
363 8588.532542 9062.144701
364 4690.201061 4098.763551
365 7115.789807 7280.782189
366 4886.181822 9469.006665
367 7046.866283 1468.771894
368 5147.798117 7362.617258
369 9878.682058 5639.505193
370 6880.143453 9765.243355
371 7766.480067 3210.772865
372 5003.511608 2560.397709
373 462.835706 620.437872
374 4769.397382 8099.669834
375 8745.849192 8328.947340
376 5057.613401 9847.162805
377 8651.685597 4014.392508
378 4340.225144 1568.409744
379 8697.919600 2130.174306
380 1452.617976 5171.872418
381 1926.174059 6154.250348
382 3074.274550 1722.913616
383 2907.590887 7145.822428
384 9351.512893 6920.298824
385 40.388000 4911.701025
386 7887.924953 2111.884151
387 1091.700688 1634.329132
388 1258.854438 3723.822298
389 1829.477706 6020.655179
390 5116.148492 8425.946797
391 9032.880291 3130.228354
392 9424.960882 7735.012581
393 8757.478494 8118.509004
394 7165.677852 1501.277762
395 1384.891968 623.321662
396 7286.855549 2644.608600
397 3205.147735 5124.612107
398 4950.158374 2770.673217
399 8215.507633 9207.216079
400 3456.169761 7843.350049
401 4420.672655 3718.347832
402 9183.438616 2586.804133
403 275.057128 477.076853
404 5386.824178 3549.824077
405 8552.275816 5785.659084
406 7471.680925 3074.289244
407 7045.637913 6051.921437
408 8863.109618 4376.013455
409 3493.747638 5213.413232
410 5833.006887 94.542599
411 2266.061753 4227.782293
412 9494.045707 1289.778553
413 7316.196952 9437.191809
414 9857.740611 5449.940200
415 2888.482455 6477.347074
416 3323.719977 6641.116365
417 2070.946039 3039.251983
418 3187.573496 8032.413443
419 1094.370124 8190.653916
420 6907.413418 8455.627386
421 7194.757280 7932.888019
422 6676.816236 6599.246993
423 2833.948876 9664.422156
424 6225.492421 1616.494341
425 5898.655251 5081.194360
426 6351.001332 324.634096
427 9487.568380 5666.979365
428 1125.421247 6480.451721
429 8622.965566 3562.751704
430 5897.509065 6115.772360
431 1621.566838 2828.627006
432 8470.798889 7107.980562
433 6957.118921 9095.938698
434 3168.637950 6068.602477
435 5951.878975 2377.309454
436 6678.782481 3805.502399
437 7193.015230 1745.766277
438 7435.905204 2666.832597
439 625.074184 7689.674228
440 6641.259980 6246.408478
441 246.932459 9340.816793
442 217.067009 183.404053
443 7224.413236 1822.237156
444 4039.916188 3404.689568
445 9747.623350 8872.343393
446 9071.384965 5295.554214
447 9108.544169 3988.768455
448 8345.399886 7690.127967
449 3614.990036 6879.351271
450 6121.931160 3430.984423
451 4631.753129 4248.278485
452 8766.031127 7804.856250
453 7696.683586 7554.443507
454 1401.204579 5759.567470
455 8579.539060 7984.012877
456 7276.334490 6427.022315
457 6174.366997 1546.730939
458 3008.308543 480.565385
459 5445.679822 7489.390343
460 3926.656280 2145.559475
461 5084.571442 8146.117014
462 9639.443755 1724.668969
463 4161.439732 464.108912
464 8831.224687 1096.127882
465 3700.945625 5353.617506
466 7493.309092 6178.825930
467 4158.024691 5084.314689
468 1538.919657 5416.757797
469 1321.709621 7404.876439
470 9262.848441 2450.663668
471 6211.227458 6569.008774
472 9445.048315 7566.393541
473 486.946655 5673.460413
474 813.659394 6458.228911
475 4477.476274 1646.208341
476 2627.315335 5884.186650
477 5052.577280 2329.281985
478 8273.396490 9116.228252
479 4494.447214 9052.892184
480 4324.169912 7049.388490
481 233.180173 2894.055358
482 9917.037675 790.263970
483 434.370754 1737.087091
484 1491.220116 7383.804652
485 1879.522968 793.661639
486 1351.446494 3107.543386
487 3738.480058 9233.793933
488 4032.606586 4379.630577
489 1400.310351 616.329720
490 7469.991754 6307.094958
491 7001.365272 7944.051426
492 4960.374315 9613.105687
493 6293.735414 4130.831169
494 8859.917618 2698.954036
495 6936.827931 9611.204758
496 2940.981089 5702.049008
497 5959.557984 1032.202487
498 1810.308902 2580.244187
499 2809.775436 3719.879218
500 669.808161 7828.309455
501 878.788647 1988.196113
502 5727.832661 6632.479232
503 3481.466154 667.390706
504 7701.807008 5756.468274
505 6234.225460 8975.705857
506 6561.300539 3322.640250
507 6999.461025 3397.228332
508 5734.938269 7656.166265
509 8951.879678 278.031020
510 8545.395378 8937.025429
511 4766.689638 5144.020780
512 1778.305157 4408.992092
513 8296.634572 9802.247730
514 7532.159620 9805.725254
515 8916.365862 6659.177436
516 8597.104313 5874.494253
517 5273.847219 9446.005518
518 5266.574385 7615.251087
519 5411.247143 8412.791112
520 4992.453744 1343.873176
521 8489.789819 3919.105766
522 1.315948 20.989567
523 1109.787068 2550.032702
524 8892.449723 4569.615513
525 8169.887705 8682.734775
526 639.332107 3106.800889
527 5496.355044 4048.962110
528 4563.505203 6050.460553
529 1413.256744 1032.220810
530 7069.747982 3874.009007
531 1097.469129 8220.924454
532 55.500223 9772.375109
533 3980.032536 4433.386430
534 2796.767203 2798.358293
535 7555.327418 9031.401536
536 7855.917738 7471.989578
537 9300.347460 1899.568528
538 6418.400016 9111.588795
539 5452.103866 7046.698929
540 1281.008906 4159.965578
541 4298.007645 1820.805414
542 8068.935884 2476.141762
543 8787.031872 709.676489
544 5865.290468 3843.654809
545 9761.185769 919.959974
546 7334.296953 3093.287957
547 5639.852887 8319.775336
548 4747.280745 5216.905671
549 2104.838895 7407.200982
550 8819.030247 8088.441614
551 2298.345721 7129.049760
552 229.887860 2791.435035
553 2837.534679 2711.974609
554 8912.344106 6329.787269
555 8873.619369 3924.182916
556 5812.373800 6978.303247
557 3702.795015 9879.982629
558 8468.584420 9926.842154
559 7691.750001 6597.869703
560 3309.982465 2476.581880
561 2772.703677 6550.402564
562 7309.259711 5871.177971
563 1753.533328 3916.296413
564 8510.296501 9637.338939
565 4950.783323 3656.946335
566 6117.918732 874.694353
567 5777.235699 5960.298819
568 731.453542 9147.757544
569 223.068771 1696.903439
570 7201.696882 1248.553522
571 3934.906599 8364.252069
572 6690.579347 3627.166895
573 6313.296827 8028.130605
574 2454.919801 6802.981466
575 76.845801 537.974891
576 9955.744066 3831.011381
577 9504.804908 6382.287493
578 9541.711651 5111.083651
579 8259.290006 2284.061421
580 316.859934 9643.207933
581 4536.213884 4603.913238
582 1262.578090 2637.489355
583 4941.846284 7510.101273
584 2714.608894 9347.718590
585 6456.042794 2483.609827
586 4862.394240 9601.155882
587 7083.720840 8204.371066
588 529.148450 4275.077200
589 6604.142244 4888.219782
590 9309.534199 9393.581292
591 2494.272414 9145.202166
592 5869.468820 1880.114156
593 4752.654057 597.625479
594 4853.719223 9148.018565
595 1548.306339 118.546067
596 2138.278395 8746.838246
597 8967.556558 3323.101066
598 1132.359631 8896.083341
599 2481.406984 6754.837108
600 8773.000371 181.956677
601 5719.031145 6050.269641
602 2492.558208 5220.564079
603 6715.987937 6251.843909
604 6198.689048 8002.921015
605 6687.272781 213.318403
606 5423.277131 1804.227879
607 577.115015 302.005379
608 2663.912258 9131.141765
609 2149.106692 7455.826730
610 3289.592970 2035.322149
611 169.680967 3163.242801
612 553.579921 8803.023293
613 7806.004906 1454.870683
614 8161.955658 8930.440125
615 7296.235230 544.243484
616 8948.425795 1643.291352
617 4784.487463 8945.173550
618 2963.569887 3040.332471
619 1931.040087 4612.670403
620 3549.980344 4749.341294
621 2468.233637 3189.665925
622 921.901326 4028.428930
623 3785.489862 2355.520007
624 6699.032497 9035.767738
625 4226.800039 1095.171072
626 9596.175021 6534.985334
627 7847.740618 6930.802427
628 6726.437159 2637.569843
629 6362.566951 2157.694659
630 8431.972480 6902.972741
631 7900.985442 2636.451408
632 9878.182905 3757.996081
633 7210.224475 7168.396852
634 2572.489240 3660.320965
635 649.497066 2686.284175
636 2813.212788 4837.255315
637 840.371867 3353.521275
638 3002.595974 1864.486882
639 3257.107624 2834.960823
640 6981.313874 7494.546146
641 2178.109786 6725.240697
642 549.105943 5541.611630
643 4639.706316 3304.034293
644 982.010634 5064.353835
645 9722.117463 9808.515199
646 7818.542002 3985.514518
647 9345.947862 9461.253217
648 4319.470445 846.779215
649 2730.420198 8919.813965
650 2016.407122 2139.285575
651 9981.155223 7558.206516
652 433.857247 6879.748187
653 2700.429013 2954.630580
654 9726.399598 1406.134013
655 6601.820049 3642.705473
656 1977.579135 2439.013482
657 9826.859347 2867.518761
658 6908.531648 5680.458084
659 9039.617932 8634.869263
660 3084.127975 1556.515679
661 1949.133237 6955.700003
662 7540.356591 3393.161414
663 3775.401772 1460.182301
664 329.590025 9825.058903
665 4570.547546 3635.993626
666 8685.228410 451.522608
667 8032.731688 5463.009697
668 2126.351799 7905.943760
669 5156.677627 386.795733
670 6277.865805 3939.883487
671 9230.376725 1375.643914
672 4712.640972 9394.612494
673 7480.771560 2015.874304
674 9749.195576 7572.651848
675 4174.526178 628.414783
676 6435.224306 945.346071
677 907.144424 7795.657348
678 6271.901856 3261.509471
679 6336.972108 6116.459174
680 3411.110862 800.422138
681 1901.783507 2540.185114
682 497.834205 8836.910038
683 2362.799578 816.329193
684 4058.558741 2518.703328
685 9180.551788 1281.379364
686 4743.763377 4878.706625
687 2152.235933 3093.749240
688 8537.652217 8772.356278
689 1948.475934 1699.448836
690 850.882790 8706.518072
691 9530.474524 9204.291489
692 3796.655038 1915.276522
693 2076.534332 889.088027
694 8562.641615 8652.136620
695 196.470571 7342.011775
696 4132.031543 2127.777702
697 5647.458145 6857.462723
698 3748.251161 2196.813893
699 2935.217508 7752.282321
700 7510.332027 8027.292503
701 5098.042127 4481.632083
702 6043.553273 6282.659036
703 7954.842501 6050.757514
704 2432.935293 7132.123565
705 6004.447874 2044.010587
706 2247.575245 3495.211729
707 8334.485194 6348.057425
708 7224.165161 7361.392402
709 8888.841334 6474.658622
710 5232.221800 6433.413602
711 3519.595941 3041.089002
712 9146.050075 6303.805324
713 9392.154918 6716.929887
714 2575.547209 5603.122376
715 3687.288585 3177.445335
716 467.002359 6981.259964
717 1780.216522 8745.030462
718 623.037590 7940.770598
719 5912.072202 1522.608648
720 6154.782923 3949.675794
721 7074.680964 7782.980802
722 7208.472088 7842.509653
723 5677.535708 289.031979
724 7365.910700 1757.518189
725 3854.450252 8966.544492
726 3128.201176 6672.338536
727 98.002450 9980.990182
728 8475.927413 1939.110163
729 9766.217767 9174.980985
730 7685.739657 6787.026554
731 3027.402577 3062.560072
732 363.799223 739.955911
733 8668.989251 4096.252834
734 7185.063454 7810.608919
735 9303.712753 8410.758434
736 2709.438244 5483.282223
737 465.871261 4455.689379
738 6288.283140 5683.458032
739 7654.297050 7168.440410
740 207.606042 4936.843543
741 5530.972623 1476.653224
742 6721.836082 23.167331
743 3142.395218 2311.935123
744 782.972396 9999.870719
745 4552.037480 2306.652099
746 1837.691989 2860.349068
747 9293.927592 195.741192
748 5067.535580 4352.310076
749 2093.816531 4468.515262
750 4925.954981 7076.278238
751 7781.569936 8919.405569
752 3229.374640 3863.533383
753 8842.315501 6492.366723
754 3723.684585 5367.073904
755 4764.847676 8974.615166
756 8975.736921 5252.781376
757 8195.509094 4778.997401
758 5995.332257 9030.440146
759 9972.409330 8815.935411
760 1427.526794 8077.711570
761 472.569777 9998.290887
762 9309.556139 2221.939403
763 2037.029904 1471.593471
764 674.313071 7911.963673
765 5086.034758 1826.890407
766 667.462540 7206.627681
767 8420.493451 5702.244113
768 802.955551 2374.468078
769 385.725883 6824.363890
770 8389.548343 5158.486869
771 5585.284457 9739.057500
772 1991.503306 8704.377298
773 5988.410980 3871.723479
774 2159.765394 5981.705388
775 7873.268676 7848.232249
776 2659.544259 4470.109458
777 8583.236113 8436.299408
778 5324.276703 1921.976237
779 3262.655086 6676.804060
780 5888.510594 2646.986335
781 7375.228715 5435.900528
782 394.705843 4354.533632
783 5678.738519 2749.653755
784 8560.531270 6118.910541
785 3741.734607 9347.571893
786 5358.562853 2289.185937
787 9595.973595 5419.662212
788 8421.061727 4557.818373
789 6654.514423 6587.112098
790 2558.552998 7749.837401
791 3218.073685 5702.435242
792 20.151384 3652.848339
793 6914.192069 3548.624828
794 9602.711602 2190.004431
795 938.318438 1778.053765
796 6290.498908 4027.772607
797 1047.659036 4623.345259
798 2786.474685 6690.347704
799 3137.973337 2060.279125
800 3070.499410 5207.032939
801 6649.221468 121.719597
802 354.112417 3148.845001
803 9475.891263 7369.484359
804 1791.571899 5433.356966
805 6314.284099 5211.595612
806 1741.721670 9549.583896
807 7523.489739 2609.036287
808 2283.089047 1840.268530
809 7836.068326 565.092120
810 6656.875825 9116.537794
811 8352.353052 9669.467806
812 841.773545 6822.604638
813 2014.095095 8957.489868
814 9067.893561 5147.454999
815 4688.030771 4464.001968
816 9703.902970 8693.299828
817 4226.466336 2875.286744
818 4003.787035 7532.469769
819 3212.315784 3416.768103
820 5113.185642 6213.751339
821 7914.726399 4960.395364
822 4533.699366 3708.487632
823 8946.263860 1141.511906
824 4702.001285 9086.687824
825 5721.126799 6163.091366
826 7994.264661 919.345014
827 9342.334689 7983.137616
828 966.031086 3905.477152
829 8892.137879 8306.190983
830 3962.642768 8369.931158
831 5502.006126 6667.158247
832 5531.106540 2756.397610
833 1209.415591 586.731203
834 6568.271696 9509.499742
835 1536.187067 4798.236497
836 5748.463194 658.827135
837 2372.838924 7879.612392
838 3327.018319 7094.772176
839 5178.935317 6963.405419
840 9894.372722 1448.207586
841 2383.758328 1787.489745
842 6560.972317 8009.976048
843 3537.161288 7705.334600
844 9465.747923 2672.885197
845 1570.547037 1654.322909
846 6642.931030 2059.367223
847 6173.256858 7290.672866
848 5094.580557 7239.632696
849 24.508388 2449.018479
850 8957.835903 2781.425751
851 7971.712923 452.964964
852 2764.826214 3960.917629
853 681.919200 7152.063333
854 4024.196310 643.884878
855 2676.065854 4493.862695
856 21.168652 6534.849499
857 2472.266583 6918.663306
858 1741.262333 7179.261375
859 8226.221169 3730.393487
860 329.693395 2957.970544
861 542.589072 7240.576915
862 1568.888854 4644.022690
863 4417.519396 5015.021223
864 8118.346540 672.034446
865 4127.543069 6947.670369
866 189.959569 3815.817510
867 8098.478252 3361.281976
868 8670.001814 9532.583863
869 2828.353229 4425.188569
870 5340.584486 5340.064378
871 4147.731687 9944.580025
872 2330.931741 7271.749347
873 3283.579273 9061.413555
874 8963.098253 4466.087295
875 8725.994780 2773.473033
876 388.825571 6032.199233
877 8418.899370 9425.358386
878 1507.869062 7863.687671
879 2563.311950 4190.963988
880 2693.910934 9155.913503
881 5817.046044 9365.696744
882 2630.941056 9805.630470
883 3322.630719 7863.336362
884 2395.378728 1040.829594
885 4440.317532 2160.285285
886 2513.765312 3323.859955
887 3496.707499 9068.211175
888 4123.721997 2386.328298
889 1722.623552 5934.373204
890 6251.343180 289.255582
891 2661.665449 6913.660159
892 8808.611943 9388.944962
893 6876.266161 4025.780045
894 7245.711209 4782.920791
895 101.865646 9720.587794
896 9336.574025 2568.263098
897 3192.567654 6364.726649
898 54.744375 7163.928257
899 6081.235466 6100.123965
900 8176.699451 4666.696382
901 7747.738481 2739.421141
902 7016.460324 7946.753671
903 6354.967754 2621.868019
904 8930.231492 5387.289294
905 2227.436284 3726.322715
906 9528.423668 356.646471
907 3385.505280 1905.923580
908 4813.536121 7229.975877
909 2895.724241 4493.380294
910 9343.914732 1395.907729
911 44.460827 3630.840884
912 7412.271689 6657.706027
913 2409.153790 901.721561
914 8099.458376 7669.891244
915 5476.880905 9993.929316
916 9648.334940 7553.801481
917 691.758214 3454.755823
918 7733.654569 2750.239601
919 7779.685667 8713.641398
920 163.067737 3456.658681
921 6130.275634 6396.746111
922 2645.549403 3893.742108
923 5085.354394 1773.355180
924 9826.879718 2141.736378
925 2659.925071 1810.479837
926 1076.862592 4510.175036
927 2066.936277 4241.085626
928 7122.239990 8219.068397
929 7851.822554 6579.387949
930 755.172676 7049.400828
931 479.144333 721.237417
932 5336.883500 9015.950479
933 3244.986136 2283.562142
934 824.656008 3515.918291
935 6321.157897 1940.406224
936 5471.455226 6225.907589
937 560.233558 3584.650541
938 6021.227091 6675.310798
939 8786.442773 3489.647450
940 3035.759925 2194.887416
941 3453.074680 4973.849169
942 8883.555907 6102.588040
943 6623.911770 2100.900284
944 7209.007050 1837.729153
945 5073.549881 6869.602364
946 8142.808210 3130.247379
947 5696.593551 2025.161259
948 1525.743842 1120.000651
949 7544.385500 7701.498418
950 5869.410014 222.069399
951 4049.604950 2792.370167
952 8928.796225 9216.649050
953 6061.277938 1288.341627
954 7296.773902 4100.161339
955 5238.459586 9436.877965
956 4418.752775 9104.946779
957 5522.946405 6119.848284
958 7595.969164 1022.812944
959 9365.409366 4630.037647
960 6748.831635 9579.787532
961 7274.874888 7758.506653
962 5479.583539 6667.212277
963 7275.027764 1704.516808
964 8271.507581 7200.023881
965 7236.095046 9947.210857
966 5848.690128 4410.929005
967 7936.078933 5991.646042
968 6643.364490 9933.697946
969 6557.828786 5557.614997
970 7575.651951 5762.369047
971 8712.871167 1105.963365
972 6802.311135 2705.169180
973 2824.085679 2018.813605
974 9915.606858 6925.319916
975 129.799713 4966.638991
976 6497.973623 331.538883
977 1086.640735 675.039452
978 7728.057637 572.129942
979 2964.955781 9690.593274
980 201.234620 25.965989
981 7716.809373 8596.169014
982 2522.622867 5585.410825
983 2907.432731 9186.268689
984 9215.831169 235.545350
985 9199.797304 2168.793170
986 4519.350373 553.215566
987 6652.295798 1780.028361
988 9411.966974 992.739242
989 3529.450715 2959.266645
990 3181.153536 6789.195272
991 8897.199906 1173.500330
992 7457.429447 2627.833512
993 9570.139232 6454.328328
994 9769.293153 9661.744663
995 149.883338 5965.545595
996 7748.732388 3042.988299
997 2900.002371 7257.015495
998 3504.255138 1311.670257
999 5246.330125 8111.763809
1000 515.219437 7387.330957
EOF
