NAME : clustered_euclidean_n500_r3
TYPE : TSP
DIMENSION : 500
EDGE_WEIGHT_TYPE : EUC_2D
NODE_COORD_SECTION
1 1739.796041 1832.742162
2 7972.302454 1311.249739
3 8325.743933 7957.913454
4 1952.853407 8607.701822
5 548.691335 2935.061717
6 8607.361463 8004.042183
7 8046.967395 2549.985044
8 7400.700551 8277.601087
9 2541.457269 1954.686770
10 2098.806229 7868.465235
11 1720.221967 986.000804
12 8164.372405 2254.564603
13 7364.090819 1147.151566
14 7657.824252 8882.202283
15 10000.000000 550.470914
16 8113.543947 8120.067133
17 2660.626510 2754.133751
18 1760.753845 2747.684024
19 7986.406851 8350.560455
20 7849.144402 6832.998051
21 1230.146380 7482.336789
22 2085.138578 7689.162669
23 1545.962475 2255.378129
24 7394.512777 2046.443499
25 8222.194297 7997.883765
26 1841.433567 7258.769212
27 2566.660727 9262.602068
28 2715.607245 7355.291838
29 2142.121413 7325.720472
30 897.961277 8578.019572
31 1933.649433 9815.764318
32 1575.087386 1476.190877
33 8720.696567 2063.388473
34 7489.245839 8011.259297
35 1960.118626 7423.820913
36 2336.752860 7148.386426
37 2307.782413 2562.611335
38 1787.076040 9383.629948
39 2091.245307 1894.477770
40 8221.419696 8190.430347
41 2455.383437 2457.569208
42 676.536853 3589.129476
43 1176.718911 1381.044559
44 2574.250505 8630.642387
45 1900.996171 1407.837445
46 2321.426801 8768.016951
47 8871.323471 7900.199808
48 2769.463294 7959.293468
49 2823.179435 1245.222771
50 8446.759911 1921.460709
51 8708.958660 2047.804347
52 8789.356610 2052.209467
53 7738.502038 1612.235308
54 7594.854655 2810.415985
55 1968.469970 2864.589922
56 7531.172801 7524.851328
57 8285.151688 1559.210315
58 7947.871340 8050.474813
59 7658.416181 7980.087099
60 2209.109019 2217.003046
61 9514.924899 8437.647524
62 7958.153725 1317.816822
63 6948.035781 1949.074772
64 7789.211093 7437.259782
65 8614.551595 2080.872783
66 2204.845012 8671.842720
67 1941.404978 2656.064551
68 2278.424579 7741.272051
69 9472.353021 7853.254503
70 9082.441061 8940.278281
71 1498.597626 1219.301924
72 9308.216472 8100.935208
73 7275.603517 1471.544215
74 1946.389169 771.678682
75 2378.269460 8237.039473
76 789.031276 8335.343093
77 1383.989444 2038.781498
78 7876.347004 2349.718655
79 8382.880098 8427.049052
80 2198.950269 7912.444621
81 2359.635720 8452.837773
82 1538.771208 8812.770484
83 7364.678329 8183.072119
84 7827.822084 1724.233029
85 6948.782019 8238.239700
86 1702.057011 7466.209363
87 7182.157100 7451.258901
88 2228.367881 2218.141322
89 7813.281643 8557.033008
90 2342.469562 1512.451494
91 8558.013959 3453.574392
92 2096.999999 8516.882858
93 7577.604527 7656.124993
94 7332.885822 873.666980
95 2453.508131 3147.925195
96 8214.659980 7762.467296
97 7839.782817 1407.846733
98 2534.170142 1936.365016
99 7973.642935 2074.850872
100 2998.915537 9215.098890
101 8182.192381 8332.152426
102 7773.256905 3679.831274
103 1532.803459 1809.182596
104 7072.138855 7947.484607
105 8143.524927 8704.391683
106 8356.258864 8895.996159
107 3077.973261 7757.444221
108 8036.077789 9222.701508
109 2580.794256 1705.861376
110 1870.309858 2409.992126
111 9227.641958 7360.927732
112 8776.983309 8048.427761
113 7983.041530 992.190027
114 8054.154563 1943.433775
115 9394.031419 8396.800751
116 9033.776563 2208.771140
117 3076.812143 2536.309964
118 9008.295040 1791.111348
119 1443.842125 8029.287621
120 2508.556150 1986.093799
121 2550.529289 8943.754267
122 8364.258607 8103.161659
123 9348.225448 9080.659507
124 1443.774838 2667.264691
125 2196.144578 6795.773811
126 6758.101403 3674.497073
127 1105.744243 3210.210233
128 7493.909186 2632.499563
129 9084.653972 1848.826896
130 3263.137196 3177.515791
131 7489.243172 8657.561577
132 8579.968083 1975.929129
133 1676.335815 7497.937463
134 7494.895794 8378.507267
135 1608.481434 2176.860419
136 7548.124577 7392.257899
137 7609.738815 2404.069016
138 1764.418465 1585.939925
139 6808.186272 7852.735439
140 8467.332082 1242.834173
141 7237.633590 1499.218931
142 1876.820833 8057.202027
143 7660.696208 2427.159485
144 915.979847 7454.660113
145 2236.115452 805.592104
146 7942.576776 8419.645829
147 7965.566900 8099.407222
148 7067.126372 7601.937638
149 8116.898494 1857.846437
150 8139.321552 8328.998238
151 7423.300106 7779.761032
152 7807.133983 2521.989574
153 8083.644336 1687.348729
154 2598.217006 7578.301948
155 3031.199242 1835.032100
156 2559.085375 7781.360615
157 3269.616753 8455.318318
158 7568.017156 8521.656590
159 1669.702548 8400.463527
160 7565.533010 3029.449437
161 7870.035989 8946.643192
162 1373.524383 8140.645166
163 2035.431305 2745.835011
164 7374.415015 1977.324191
165 7697.945412 7621.508085
166 9379.629988 7671.346257
167 8050.992462 8967.933815
168 1889.071642 8155.426747
169 2616.160786 7526.036770
170 2973.317349 3204.423719
171 2770.238204 1410.751268
172 7581.450438 865.289220
173 7418.765629 7891.678987
174 7510.343589 1857.076823
175 1460.940616 7677.563162
176 7428.934898 2050.319968
177 6740.658761 8460.260653
178 2110.606662 7932.118043
179 2309.638856 8314.839381
180 1619.553477 7065.328437
181 7299.269133 2276.685561
182 8123.841882 7755.380743
183 7725.718677 2251.179882
184 8604.664585 8401.093487
185 2276.590669 1831.298074
186 2919.529786 7683.126108
187 3056.625728 2655.651219
188 1782.199261 1999.660730
189 6640.303062 8002.618330
190 7667.904700 2047.840009
191 7575.063599 7307.674575
192 7667.357117 2120.662003
193 8763.782545 7860.226275
194 2448.809723 7380.911108
195 1544.232761 1815.681185
196 7752.250914 2217.948251
197 8462.657889 2229.343119
198 7165.207216 2472.128452
199 7691.673926 1579.469418
200 8448.454576 1501.961234
201 1583.458362 2028.323120
202 7484.275845 8084.197790
203 1433.477125 7955.430626
204 8291.250948 7759.447296
205 8403.038209 1703.887621
206 7213.046934 7931.237618
207 886.133953 6980.761669
208 2041.683575 7565.524062
209 8569.625994 732.711618
210 9229.883984 8306.552196
211 1644.386505 2537.895663
212 8394.216833 8433.870488
213 8016.051925 8309.748734
214 8344.946664 6392.675253
215 8433.446508 2521.449382
216 7329.292854 8337.968068
217 8890.114044 2656.929328
218 2313.513615 8423.093503
219 7055.818413 7683.995900
220 8271.972100 2421.165193
221 7523.272159 2315.177823
222 7790.000397 2635.913943
223 8774.402227 1139.425214
224 8644.476723 3217.128840
225 7984.991741 7872.764044
226 1467.516974 7727.381466
227 1861.755980 7255.822706
228 8900.125721 8381.571758
229 2259.342533 7205.189949
230 7838.179871 912.307388
231 1184.216767 7682.206438
232 7480.891043 1763.875905
233 1543.729533 7958.707280
234 8062.478709 1695.735086
235 2723.026656 7643.501799
236 2675.449823 7333.827143
237 2762.349680 7772.438809
238 2352.574816 2579.849305
239 2332.352362 1802.465983
240 1484.045909 7206.614638
241 7585.544101 3194.695903
242 7188.733319 8902.106351
243 8364.235728 2252.227764
244 7735.967469 1838.390321
245 2457.911314 7278.588177
246 1101.805320 1205.984359
247 7716.603065 8217.018500
248 6644.412270 1782.660542
249 2004.659202 8287.921903
250 2283.420352 7184.742456
251 951.211094 7115.380838
252 7444.407151 3056.737259
253 7735.570639 8231.484926
254 1712.266634 1722.768635
255 8073.230180 1815.657622
256 7992.002867 1737.803061
257 1561.718718 9797.524461
258 2342.540813 7875.006041
259 2528.682102 1838.131642
260 7936.421450 999.927181
261 1845.928001 2188.920162
262 1202.740152 1293.099493
263 1742.176731 2533.425014
264 7560.278962 2432.176541
265 2143.961675 9459.341455
266 7120.477618 1657.067781
267 8628.439775 2252.770462
268 3290.252730 7399.263714
269 2300.541941 1375.657501
270 1647.594914 1936.335210
271 2385.877578 7218.490688
272 1795.566772 2834.480607
273 7919.641084 2128.734006
274 1421.625568 7091.127831
275 8394.581277 1743.271803
276 8985.638130 2238.422957
277 8558.247540 7253.407863
278 8769.854406 8178.554345
279 8626.092163 8539.495511
280 8160.439414 2576.707041
281 2297.482265 7504.565005
282 1907.849588 7730.188740
283 522.808247 1592.024454
284 1565.992956 7911.247502
285 2088.222233 2368.654450
286 2217.869765 1124.417328
287 2782.601412 8795.965363
288 8343.724728 2874.094398
289 8187.617125 7910.078504
290 8444.084970 2450.561274
291 2360.173453 7828.121204
292 2506.649836 2553.771444
293 2800.751823 2004.696043
294 9327.634988 7602.904481
295 1403.942283 2577.948415
296 9127.095584 7921.470177
297 1248.591813 8377.063268
298 9215.072514 8450.961668
299 1352.369182 8573.685616
300 8624.635636 3340.160782
301 2697.800812 7615.801133
302 8766.202564 7813.515000
303 8422.826755 2030.510853
304 8845.541701 7954.621784
305 7646.473486 8963.130007
306 8066.338091 8937.612036
307 8221.670754 2839.418960
308 8050.504173 3093.780715
309 2001.575882 8688.599362
310 1981.894758 3060.505026
311 8311.270629 2076.441879
312 6789.222890 1620.202900
313 2123.359089 2239.595950
314 8043.358170 2595.291752
315 8259.932804 8042.534351
316 1766.454764 1699.663335
317 1489.755124 2379.422458
318 2259.380460 8329.082617
319 8276.728868 7562.350700
320 1811.062630 910.038214
321 8177.755590 6886.541612
322 7674.908875 7749.931297
323 1543.666881 1857.692019
324 3195.959591 7512.496053
325 8562.655703 1506.999210
326 1860.741509 2124.654237
327 8515.486268 2736.628859
328 1121.186313 2396.696597
329 8156.702865 8103.610485
330 1465.122623 7055.889731
331 8258.150634 2416.839797
332 6446.211418 2382.310699
333 9996.667537 7458.814027
334 1723.103260 1929.518145
335 7941.930371 7841.496284
336 407.656120 2601.965835
337 1605.875003 2280.578571
338 8170.695815 2128.781072
339 6784.101237 7771.107909
340 1789.754684 8263.354582
341 8386.137807 2017.957768
342 1956.996978 1794.887159
343 7343.271767 7424.187616
344 7674.802072 1160.591323
345 2424.870934 2343.105368
346 1738.475522 9171.707711
347 7665.934331 7498.695208
348 8349.493357 1186.700572
349 7710.909785 8563.674809
350 8209.595081 8290.817035
351 1724.417016 715.390240
352 7396.352122 1501.587778
353 2813.714202 2539.445360
354 2038.953037 1752.081437
355 2452.865383 1668.338582
356 1875.266277 1728.534579
357 3078.782261 1334.350482
358 1977.138321 1653.297178
359 2586.580454 2574.902428
360 7407.076900 7873.235470
361 2706.848090 7980.097868
362 2963.288909 2235.224301
363 7259.160917 1694.800166
364 3108.151460 9214.655218
365 3259.795284 9690.911476
366 1293.817052 1643.690492
367 6936.201738 7711.771823
368 1794.888594 3114.916341
369 1543.491589 2349.856856
370 674.480370 1982.457263
371 7719.332912 7398.553469
372 2512.146611 8118.219464
373 2146.698230 2500.146323
374 6827.550824 8044.776737
375 7684.296438 7487.445156
376 7965.100607 1946.540116
377 1224.536239 2778.412012
378 1835.432097 9084.096632
379 3480.064240 849.998627
380 1773.152298 7819.105444
381 2257.417809 7704.977165
382 7048.049481 7161.385327
383 2350.461095 8317.611781
384 8008.652290 1458.260726
385 1934.126042 2307.979059
386 2542.886517 6725.462891
387 7400.336017 7103.557919
388 7754.974743 2012.272319
389 8771.324183 8113.013232
390 2226.608279 1767.408707
391 1568.090861 3053.502851
392 2115.145897 2508.923680
393 2258.353711 7702.045911
394 7746.566503 2610.700104
395 2443.321811 8635.567745
396 3286.525407 1721.392653
397 6532.445857 1549.037138
398 3061.073264 743.091634
399 2356.581862 8078.748755
400 6781.303911 7021.313089
401 1315.051152 7846.003749
402 2452.429681 7098.805967
403 1990.460789 8049.937429
404 2629.356376 8024.929468
405 1589.969484 1911.569600
406 1681.962939 8218.769477
407 8238.518228 9323.318567
408 8078.328324 8272.304527
409 7836.235800 7955.418972
410 8046.235516 2116.204190
411 2224.364211 1938.933219
412 8771.000947 2182.874738
413 6940.982114 7458.422871
414 8645.482790 2538.994586
415 3255.080886 1854.636117
416 8127.413901 8308.413092
417 9456.943824 952.097620
418 8152.191784 21.508921
419 2204.710530 7813.973165
420 2208.958548 8110.704494
421 8292.351353 1565.620068
422 1493.980209 8473.181863
423 7991.728418 8029.946645
424 3273.165439 8050.247987
425 1691.922848 711.785822
426 8023.783917 2918.218272
427 1964.568511 1670.704148
428 8705.068469 947.461738
429 2326.741062 8681.961928
430 7433.874196 7878.723415
431 2391.502960 1171.029646
432 1930.815900 1402.184478
433 1126.836824 1618.967540
434 1088.693752 7764.464671
435 2553.270839 1435.868947
436 9067.753803 1475.917832
437 1912.711691 1326.678637
438 7701.851490 7317.091629
439 1433.382969 8867.899298
440 8825.975978 8074.213936
441 6951.536325 3195.189066
442 1642.851144 9977.003833
443 2134.585266 1674.678173
444 2854.084115 2256.181827
445 1421.581565 8305.170619
446 1238.911752 2634.519128
447 2083.605919 8709.579353
448 1792.907094 7486.242678
449 8205.100469 7784.443593
450 1248.655594 2038.539913
451 6922.333188 916.813052
452 8219.758297 3198.253487
453 8437.755161 2748.288692
454 1356.188059 7161.782894
455 8214.365567 8405.620656
456 2361.111975 7938.394550
457 2569.093146 1773.027637
458 7789.842677 7764.655612
459 785.605071 923.341296
460 2621.229637 8849.433278
461 7438.643643 1039.400094
462 8383.418503 8857.185121
463 8886.313914 6956.692644
464 1558.138836 769.173671
465 2305.544996 8903.873477
466 1801.941477 9162.585521
467 1318.066643 7418.584272
468 2882.953705 1640.342886
469 7303.996019 8816.025258
470 716.303438 2877.758791
471 2101.168969 8454.547108
472 1798.474190 8455.652431
473 8847.113084 6961.617645
474 2892.169262 7752.551789
475 2102.003313 8139.054701
476 8953.883922 1786.899695
477 2418.065050 7296.892790
478 8434.498904 7975.680024
479 8692.946038 8851.302851
480 2812.549785 1132.851849
481 1470.608464 1226.353928
482 8355.407802 1532.103548
483 1855.401143 8117.578700
484 8583.756364 785.923738
485 8041.127838 8251.726911
486 1239.395931 1781.075489
487 8154.168938 1063.442840
488 7646.310771 1286.019098
489 1036.556389 46.245252
490 1166.008604 2287.329682
491 1956.899758 8776.107454
492 2028.036910 2926.533932
493 3185.194259 1829.818144
494 8723.921845 1304.030686
495 8407.082554 8674.468484
496 8292.043874 2336.680621
497 9434.527661 8081.759305
498 8425.132535 8742.152164
499 1410.292936 7328.196333
500 2154.171164 1766.207547
EOF
