NAME : clustered_euclidean_n500_r1
TYPE : TSP
DIMENSION : 500
EDGE_WEIGHT_TYPE : EUC_2D
NODE_COORD_SECTION
1 2813.779579 2847.938841
2 2767.344515 7379.813870
3 8235.433059 8072.122868
4 7160.920682 2166.442126
5 118.940819 9258.037496
6 2886.238691 7475.711895
7 2117.737059 9497.163898
8 2273.807324 8145.380176
9 1683.386396 7962.696404
10 1234.258954 7241.733020
11 7469.598007 7060.823303
12 8174.297700 2130.382367
13 1753.943946 1409.376545
14 7453.067478 1568.496968
15 1519.266472 499.589685
16 2516.720412 8383.976653
17 2051.002757 7697.834295
18 1392.412472 8645.342584
19 7988.552859 2252.529873
20 1453.371227 1797.566195
21 7236.219538 8016.902593
22 8072.701484 7546.799350
23 1215.360353 8162.978546
24 6699.909254 7933.892034
25 1769.368301 8448.717631
26 2033.469990 8656.993296
27 8033.961766 1476.926371
28 2567.672257 7660.142298
29 3167.842586 7901.522128
30 2426.790833 7702.110303
31 8230.809664 1755.862794
32 2511.413756 2194.723753
33 3389.681108 8310.495642
34 8421.975302 8746.838113
35 7753.750905 1505.387371
36 8455.776206 7943.326878
37 1729.276172 1562.387668
38 7088.088911 7895.478177
39 8441.169943 1638.494097
40 1901.723819 7166.879328
41 8127.967426 7441.969832
42 8000.552188 6724.054326
43 1750.484547 1239.141956
44 815.951291 8952.323595
45 8127.000128 2870.541497
46 8458.766367 1896.590735
47 7906.265001 8996.158848
48 2088.222472 7800.311957
49 7861.092572 6800.109926
50 1968.427047 7622.221249
51 2903.342410 2692.725868
52 1324.995334 7860.024758
53 8642.066185 2816.997945
54 8428.597363 6852.845659
55 8076.587969 2553.024278
56 7980.469013 1437.445976
57 7190.387875 2367.697553
58 2667.148887 7885.756339
59 8907.457848 9220.278769
60 7634.015866 1854.337440
61 1112.298667 8350.691565
62 2140.039208 2680.745740
63 932.868373 7943.108148
64 1706.812408 2905.100605
65 3021.865092 2677.279031
66 7127.746903 2135.668751
67 1760.844292 7768.338829
68 1548.333805 7939.238309
69 2379.683194 1528.834906
70 7149.252734 2817.870243
71 3094.963918 1685.555926
72 1463.781707 9903.192776
73 1345.217697 8110.948567
74 6964.719783 8621.741118
75 2153.691504 1259.192384
76 1946.894456 1160.145812
77 8525.318755 7657.688753
78 2505.575847 7972.173818
79 1463.929605 3386.799479
80 8495.563866 8007.024683
81 864.263713 7129.432569
82 1992.640115 3428.191572
83 8071.055411 2577.912451
84 1539.075910 9634.339064
85 2537.288753 2127.830611
86 2326.076623 9264.645892
87 3057.288162 9255.805092
88 6378.750875 2444.234709
89 8492.980560 7573.595144
90 2506.405400 7919.106748
91 1676.574304 2461.677186
92 6907.749713 2028.631042
93 7891.271655 1461.369860
94 1774.853810 7183.292755
95 1375.569070 7246.042791
96 6929.294934 2451.833314
97 7447.456794 2404.608316
98 1786.933627 7044.899791
99 2162.014184 1699.380537
100 2514.267078 2466.242370
101 2314.286372 8040.144799
102 8241.103621 1583.261581
103 7940.061699 2145.203266
104 7713.522649 6669.853799
105 1368.599541 8003.204014
106 7294.450439 7961.027955
107 6663.135825 7363.548729
108 7489.764510 8536.969809
109 7240.847664 2761.675955
110 8599.699642 7049.541181
111 7068.716647 7378.433929
112 807.738458 1739.349325
113 2879.804168 2370.740732
114 6351.427235 2862.105709
115 1334.828731 8787.480795
116 8556.308769 7912.219629
117 1346.660967 2373.427486
118 7998.059552 7298.352778
119 819.851949 1452.406305
120 2167.659478 8703.829436
121 2801.794273 8416.873241
122 1526.174235 1451.051357
123 8007.773596 2611.827259
124 8024.209194 1467.600993
125 2102.030714 1108.287005
126 8363.908628 8250.772292
127 2448.859203 8487.715882
128 2943.642085 7827.896001
129 8993.896706 1935.582849
130 7305.153180 7618.697169
131 7447.630605 7497.613074
132 7588.025420 2729.294790
133 1738.681285 2502.060416
134 1648.352982 2002.774333
135 8114.688927 904.396656
136 2567.536034 8109.749191
137 7656.610998 7705.407864
138 8069.148285 8304.157813
139 0.000000 1747.835936
140 7296.450753 1811.964908
141 8096.694129 2553.008611
142 2389.548563 1046.489746
143 7707.643324 1831.558482
144 8041.847551 2544.226270
145 7175.375171 8380.121702
146 7283.602805 8471.575820
147 7900.164901 9011.873598
148 7842.426886 3152.821777
149 8268.802308 6876.647815
150 7975.031783 1834.698368
151 7662.917812 1908.325838
152 1920.910459 1593.708292
153 2307.640711 7104.456155
154 8591.065201 1278.966091
155 8123.517008 8496.399475
156 1567.358955 7387.226225
157 8882.720752 7975.459328
158 1913.371299 1078.532036
159 8225.780755 2573.618144
160 7108.801943 8037.237285
161 8355.764723 3391.608109
162 2855.873140 6162.877747
163 7327.678966 1030.622321
164 7187.084184 8850.720269
165 2514.003252 2523.856929
166 8399.053878 6916.025721
167 1865.896685 2261.009696
168 8502.814535 7442.342354
169 2332.575896 2100.110120
170 1451.816538 3395.052014
171 8306.745733 8450.350043
172 1805.600003 7678.005856
173 8271.718575 7324.113458
174 2126.251380 8097.007630
175 1654.690942 7830.053979
176 7376.873213 8049.590109
177 1534.533344 8863.259177
178 7373.956440 8252.797526
179 1782.417303 7575.354974
180 1848.577270 1787.924134
181 1856.863448 1421.848229
182 7846.643288 7360.519005
183 2279.890915 8343.417985
184 1643.598674 2607.841532
185 7693.807140 8572.549530
186 1362.626666 2743.051588
187 2074.434311 2398.192982
188 1589.761083 2378.000948
189 8077.380351 7628.037200
190 2462.538243 2140.674204
191 8444.438011 1708.010328
192 2453.393638 7935.130247
193 1780.779401 1064.331041
194 7730.070275 3235.163883
195 2567.581200 1047.533992
196 2737.636753 2186.323849
197 7392.365493 6911.154709
198 1047.538274 2378.995659
199 8268.684360 8964.112679
200 1686.973047 2805.775171
201 2358.656092 8312.928117
202 1372.883125 7428.554737
203 2734.525590 9766.405145
204 1081.331557 2252.698877
205 1817.064653 1138.227377
206 1329.321832 8178.586297
207 2397.100768 2234.552505
208 7417.750457 2233.001098
209 2330.534186 6669.773250
210 2004.312606 1767.869861
211 8296.309829 2777.800259
212 2351.476396 7546.130750
213 7757.202005 7278.648577
214 6879.149443 8488.026871
215 8651.462814 8247.128569
216 1362.721835 8197.517811
217 1994.156781 8047.874806
218 1881.166154 1868.954848
219 6566.153285 1246.956286
220 1559.523330 3550.579619
221 3002.910340 2549.883120
222 1370.830822 3026.280210
223 6791.056748 8948.465957
224 1338.860234 8198.323306
225 1596.612142 2343.168017
226 2803.964283 2572.408164
227 8034.609637 9017.471112
228 7072.567800 8077.983443
229 9048.376516 1138.119644
230 9267.082599 6749.711953
231 1599.838557 1144.113735
232 2821.500531 1338.809831
233 8304.520197 2430.381400
234 7736.785001 8346.569226
235 9005.999861 1773.176443
236 7787.570489 8070.049233
237 8487.338315 2311.123178
238 7886.599077 7785.113884
239 2169.379980 8019.672349
240 9946.940864 7787.045498
241 7802.829392 6852.722420
242 8769.382838 2955.674151
243 1592.986218 8083.398196
244 7961.135852 1826.311933
245 8005.443482 2249.898429
246 2813.419476 2659.728562
247 8896.820929 8207.490175
248 8260.393412 1636.527512
249 6531.001154 1388.459993
250 8087.331831 7576.536489
251 8031.634908 6924.561286
252 1504.214305 2052.846641
253 7928.637392 2167.319645
254 9064.308285 2923.017646
255 1907.835075 2908.007800
256 8070.519115 7742.297975
257 7386.673700 8082.585449
258 2175.313754 2590.233813
259 1320.929867 6883.249569
260 1304.160298 2364.251126
261 2657.404467 6405.306775
262 1193.813242 1469.727820
263 2434.886092 7733.799410
264 1619.331000 2431.224715
265 2735.405563 2149.333505
266 9976.466864 8589.163158
267 7668.524702 1493.668440
268 7283.084395 1710.746300
269 2394.432012 1378.134893
270 8415.334772 2149.461913
271 2229.683526 2888.860389
272 2247.564666 9701.940582
273 8544.653947 1428.818754
274 8387.095906 7443.729256
275 7546.499686 7375.924958
276 1326.298913 7469.843199
277 2378.451462 8287.675916
278 2128.910950 6479.991356
279 7886.463256 8074.576752
280 8231.816787 7912.143073
281 2992.933457 8573.811993
282 7774.736277 2152.569559
283 1398.051466 2608.502235
284 8578.032309 8107.239726
285 2727.688017 2841.075617
286 8065.527948 8571.608842
287 7258.106415 6626.213274
288 9268.345211 2091.716971
289 1119.621147 2145.527658
290 2379.820823 2351.220350
291 8133.504377 2630.067222
292 2769.910697 1321.321485
293 7476.276036 7452.150282
294 1265.787595 8310.246616
295 8021.336464 1563.432166
296 7397.057792 2545.208554
297 8098.801081 7821.249494
298 2713.223977 2411.399914
299 7835.937640 2986.881158
300 2701.257373 7399.421341
301 2453.206645 817.232456
302 1939.893217 7972.448333
303 7570.834139 3005.604982
304 1903.707481 2453.858129
305 8061.885060 7027.660173
306 8758.290672 3336.106492
307 7111.735538 7975.194080
308 2323.954349 8271.371104
309 1489.974534 3571.887600
310 7226.195249 2108.970082
311 1806.890825 8969.203342
312 7904.858295 2721.868862
313 7768.517382 7942.673749
314 7786.115047 9014.545412
315 6822.115402 7580.338747
316 1400.688603 7670.547601
317 7206.030999 1529.618734
318 1661.183502 7600.280150
319 10000.000000 2349.644903
320 1824.381569 8068.200374
321 8663.222033 9692.648680
322 2113.906325 1465.071349
323 2130.360242 7923.717152
324 2499.093149 2403.499687
325 2390.645097 2405.768166
326 2689.091762 8728.515553
327 1700.456978 1988.645691
328 7329.657831 8496.081500
329 8919.938728 1649.410948
330 7379.356855 7561.105883
331 1981.529235 2734.648599
332 2650.966593 9361.341799
333 8338.500920 2617.954613
334 1283.238661 9099.793345
335 7333.980811 9463.592408
336 9031.216856 8246.109991
337 2398.742819 2414.827450
338 8072.468521 2283.277780
339 1570.028126 2461.367098
340 6625.548274 1885.613140
341 6796.663554 1777.297799
342 1701.808893 3008.010774
343 8550.610545 1895.890429
344 2120.325041 8930.400705
345 8087.504274 2913.905657
346 1461.511402 823.332343
347 8604.267956 1454.415673
348 836.390209 284.572707
349 2151.507227 2272.073542
350 7925.396221 3063.243588
351 7626.537361 2886.594585
352 2957.688644 8069.344910
353 7553.616429 7972.504915
354 6976.296929 7920.914807
355 2454.447018 2928.129126
356 8382.593255 8124.062738
357 8320.928130 9103.559836
358 7636.007619 297.530982
359 7101.734869 9048.547434
360 2840.391645 7452.743965
361 7149.713422 7529.100816
362 9332.508530 2240.158771
363 1240.961254 1980.444352
364 8328.369435 1589.569993
365 8177.654065 8077.137280
366 1925.731683 1754.600456
367 8270.484092 1840.094010
368 2033.189942 2706.752661
369 3750.560341 2409.034792
370 7737.603848 1803.481826
371 977.988064 8526.718412
372 1875.062880 989.524168
373 1679.507375 1098.690820
374 8239.234070 2477.982068
375 1928.237941 8092.134106
376 8106.724586 3231.208739
377 2576.126684 1567.068177
378 7754.988997 7777.695167
379 8545.895138 8127.042535
380 7590.728201 7912.860995
381 2151.264385 1715.265988
382 2552.763476 8690.560791
383 7802.398304 7583.782712
384 2035.494919 2461.828432
385 1556.900830 7870.990291
386 1703.446058 8135.779964
387 8911.928854 8888.667900
388 1346.492675 7709.335108
389 8400.625757 7809.600258
390 7874.673461 8548.942070
391 8046.212394 1693.802908
392 7695.354074 7856.335145
393 8712.196326 415.548562
394 8303.267631 9302.488326
395 2408.772326 1370.569941
396 8261.500477 2265.454075
397 7687.228813 2980.194017
398 7566.592629 1889.278461
399 1892.126459 9565.835453
400 2784.253109 1877.135030
401 3042.681281 6266.507091
402 8378.084956 2283.446477
403 7749.945733 1852.544097
404 6867.345525 2004.526960
405 3322.529366 1092.574298
406 7767.569442 6902.800046
407 7124.875378 7419.830215
408 6911.477608 2385.867801
409 2243.460321 2632.710673
410 2264.745208 2430.011227
411 9184.387125 2553.317222
412 8533.679023 8763.514513
413 2674.625301 8076.746583
414 2716.475332 7387.075961
415 8629.463456 2465.377188
416 1422.379126 2555.330799
417 7354.045658 7026.100142
418 7402.763290 8855.595902
419 1598.168535 7883.776313
420 1339.878712 7568.229657
421 6628.762697 1592.099571
422 8455.986030 7367.300229
423 8531.991620 1378.471230
424 3122.081053 7526.228918
425 8125.536975 1816.792534
426 6705.457489 9085.861240
427 1690.540070 2092.052440
428 7673.002839 1515.564593
429 811.826420 8058.154906
430 7141.247022 2295.375852
431 1710.494408 7556.383000
432 2602.788124 7704.193443
433 809.629610 1846.596271
434 1478.597577 7726.884683
435 7057.928680 2278.682808
436 1917.020270 9216.958377
437 8226.051672 2859.840520
438 2288.724643 7580.674593
439 7972.567002 8615.823576
440 1350.297202 1887.370637
441 3142.834905 3028.366994
442 8755.495213 8286.485636
443 1218.219751 8268.905720
444 6807.424825 7350.045516
445 2221.385962 1992.149236
446 481.418562 1804.035014
447 8317.932428 1698.089029
448 8320.561239 7734.430279
449 1294.041108 7799.144792
450 7958.260060 8157.665972
451 2939.223021 7994.683110
452 1619.867944 2517.086730
453 1390.462548 2241.912130
454 8959.029750 7641.325030
455 8811.696382 1808.777665
456 8293.446501 646.861911
457 8568.902752 1737.556687
458 7712.168464 1285.518237
459 9943.713474 8368.685985
460 7550.556654 2932.558019
461 2696.618037 9769.188731
462 1697.565667 7863.476622
463 2076.189407 2325.158437
464 8714.615036 7322.647547
465 8245.916983 2287.718876
466 2528.264900 8852.201046
467 8325.927397 7329.032549
468 1360.108663 2403.830638
469 6855.446998 8967.659084
470 1785.750049 1944.965365
471 7806.274748 1975.994681
472 8099.976310 7529.258049
473 7912.135903 7716.413903
474 1360.132597 7900.247564
475 736.652021 7464.686534
476 7286.980294 8512.669415
477 1535.407110 8464.413937
478 7936.703926 829.553974
479 1543.756722 2853.071813
480 7833.732210 8351.494290
481 7987.679087 2959.716283
482 7378.574844 1726.879226
483 2462.559022 2969.831552
484 1574.298519 7675.271634
485 2099.737141 2211.400124
486 1488.475608 2115.826958
487 8047.260143 1526.050368
488 7782.091694 2045.464223
489 8566.847003 2570.867713
490 398.509827 2987.216413
491 1245.315005 7661.503562
492 1957.981230 7514.732100
493 7704.823513 2618.905008
494 1047.817588 2067.545471
495 3146.617823 8373.591143
496 8300.876442 8357.826334
497 1156.301276 1792.671980
498 1135.295521 7792.142142
499 2648.648323 8124.366001
500 1975.139427 8697.138022
EOF
