NAME : clustered_euclidean_n500_r2
TYPE : TSP
DIMENSION : 500
EDGE_WEIGHT_TYPE : EUC_2D
NODE_COORD_SECTION
1 8352.342324 8503.205893
2 7421.030078 7912.564229
3 1399.244599 1795.290425
4 8215.754490 1385.111922
5 2034.663007 1026.909681
6 1814.704590 9430.623288
7 3443.093763 7540.808942
8 7891.583739 8246.742937
9 7512.594892 6912.425263
10 1115.542880 8180.949751
11 2293.612193 6794.539509
12 1388.552027 1635.598023
13 8810.880918 7457.151016
14 7280.113607 2023.811857
15 7236.041523 2465.670988
16 2053.642021 7897.755021
17 2289.023531 1722.698146
18 1844.479065 2028.393141
19 8551.811006 2243.883341
20 1897.112799 8041.715427
21 2505.140678 7560.805882
22 1781.540482 9228.309533
23 2323.291235 1422.870420
24 2226.924261 2736.103172
25 8768.025373 2300.059828
26 8497.961570 8044.759754
27 7789.089758 7628.186928
28 430.733798 7808.982315
29 2508.116113 2219.299397
30 6934.299995 6855.404686
31 1801.203266 2036.407679
32 2420.004504 7161.271027
33 2439.400686 8091.643012
34 1614.384212 7879.251573
35 7542.490280 1798.577137
36 1964.890480 8152.246557
37 7967.677898 6735.152548
38 1090.601744 3066.416947
39 7936.425621 2568.501789
40 1611.991843 2583.571810
41 1731.741068 7500.932895
42 8412.267620 2125.372939
43 2509.935819 8196.547948
44 8003.540640 2623.731447
45 1511.066111 8038.913898
46 1549.407979 1252.598928
47 6887.899201 8812.349851
48 3056.235070 7118.321468
49 7796.393547 7225.418678
50 3093.017155 2069.134044
51 7519.051659 1162.270196
52 7207.638902 7306.671702
53 2026.931037 8696.529372
54 8756.229439 9442.128089
55 7843.230430 1426.991408
56 2846.225440 7855.191412
57 8504.166781 8345.986393
58 2237.745392 7669.818210
59 7149.334521 2052.211519
60 974.323171 1034.942291
61 8252.270114 3264.700243
62 8635.056098 2156.430600
63 2193.088263 2053.131901
64 8067.420276 1615.838011
65 3983.655885 9274.330741
66 2746.519094 2957.450391
67 7349.899512 7715.927648
68 8843.144629 8097.507901
69 7383.947955 1493.480744
70 7676.272233 2556.962103
71 8482.303067 6250.307906
72 6975.489416 1880.767856
73 8088.323901 7323.318099
74 8704.875515 2353.864276
75 8144.365037 7569.684299
76 7761.025018 2148.569367
77 2425.937251 1368.336375
78 8260.722382 8215.652941
79 2844.556003 7909.587573
80 2015.635044 948.965161
81 2144.231023 2084.343220
82 7035.941549 2232.482158
83 1166.814103 8274.292881
84 2440.235146 7347.406325
85 8241.758274 1712.515918
86 1508.777599 2132.223852
87 7871.853028 2286.058840
88 6759.582377 8447.123337
89 1892.149726 2228.769112
90 8075.591939 8425.181082
91 1392.040303 1099.935165
92 1945.944012 8289.145997
93 7658.324447 7374.036757
94 1122.247521 7501.807700
95 8645.174598 7841.056107
96 2253.568530 7843.939622
97 8450.291707 1753.245932
98 8661.257371 8416.373688
99 8179.671023 3610.035130
100 7234.070035 7654.116391
101 1588.207377 8134.285153
102 8240.058544 1441.813471
103 2534.889693 7800.780944
104 8255.368480 1896.350784
105 1617.688294 6884.612937
106 437.882349 7932.443485
107 2482.809991 1139.112355
108 1309.107531 2107.634069
109 1813.906922 708.785575
110 3038.081599 1297.539381
111 8342.303504 1882.863849
112 1153.996987 1989.767883
113 7941.764455 2326.656539
114 1466.813884 6804.891585
115 1754.590177 7382.874701
116 2666.908970 7125.070464
117 9342.244146 9863.213174
118 1538.286726 7568.696363
119 1862.863570 1544.555849
120 2620.957102 1406.056417
121 2265.184415 769.214009
122 1273.689046 1639.377904
123 1491.741253 1802.051859
124 7686.797635 430.357733
125 7852.387656 8256.421527
126 8722.479578 8209.337655
127 8761.927785 773.002248
128 7032.592425 7747.439240
129 2459.295117 2232.560678
130 1965.359962 1899.043874
131 8575.806574 2923.218989
132 7701.485278 2159.458896
133 2013.537364 7469.613909
134 2155.595935 1898.833398
135 8622.518875 6047.519727
136 8907.682684 7982.840405
137 7756.346961 2022.981639
138 8276.132336 1245.659109
139 2806.845823 2319.656289
140 6742.920463 3344.635613
141 7467.666482 8113.065239
142 8559.499621 1568.583155
143 7661.839137 7412.329109
144 1769.767094 3137.493889
145 2763.451100 3028.822954
146 2272.015212 2707.114374
147 1945.402630 8445.583391
148 9314.726931 1365.147463
149 2630.392703 1584.057120
150 2172.413509 1849.028450
151 7753.833396 3459.618545
152 1917.527154 2365.930140
153 1557.746898 1427.084699
154 2189.335569 2028.810055
155 7362.233357 8028.672303
156 2306.659785 1540.203502
157 1697.407142 7006.282707
158 2561.508597 8343.913574
159 8412.708546 8349.336423
160 8018.106417 8738.080340
161 7561.432483 7881.499177
162 8905.528639 1835.507120
163 7919.143541 1810.945011
164 2052.243827 2051.373337
165 7989.047407 3080.527484
166 7190.707167 2493.976515
167 7468.330465 6697.480013
168 2739.373892 2619.324068
169 1000.571246 8220.344084
170 1960.537765 8698.175822
171 1463.180999 2072.879515
172 2226.695553 2428.054806
173 8122.293932 1872.190901
174 2439.300120 700.221197
175 2631.456131 6889.770664
176 8213.514707 2446.339466
177 7716.212892 9171.009774
178 2950.354387 1508.885999
179 7500.133223 6855.416411
180 2540.193207 8073.039416
181 8097.560876 1724.882592
182 8645.032400 7981.357050
183 739.002297 8042.470295
184 2320.908950 7655.753032
185 2123.299720 7738.676126
186 8664.710676 8594.196582
187 8234.289879 7336.262385
188 7861.130608 7322.356531
189 2589.796156 8297.601160
190 7900.376238 6815.305951
191 7550.457939 2372.441172
192 1867.202982 851.538308
193 7168.739757 1747.312129
194 8431.227309 8619.600480
195 835.971001 8891.989002
196 7842.539386 7722.822896
197 1595.212394 8025.889093
198 3123.781265 7888.881992
199 8129.243985 9304.825246
200 2188.028751 1649.619623
201 6930.965430 8823.981983
202 1961.341693 1473.485729
203 2158.612574 8338.937731
204 9210.304852 1391.837868
205 9104.554540 2440.813469
206 1531.583167 2442.164017
207 3286.931010 8006.471187
208 1868.245605 7711.550589
209 2874.617704 8314.174488
210 7456.040516 1260.309554
211 7359.103924 1799.601851
212 2074.893094 1904.627047
213 7665.729038 7496.254515
214 2429.507453 1208.201872
215 7859.697400 8302.012358
216 8488.430160 2103.142074
217 8430.390599 2316.253253
218 2271.078845 8265.703208
219 7670.510623 1910.058775
220 8589.913581 7813.520760
221 6951.970882 1163.479624
222 7770.852719 7584.892762
223 7540.329115 9435.569747
224 7401.910540 878.226355
225 7948.537103 2753.052086
226 8833.782163 2847.496683
227 2328.606350 8794.683790
228 7907.480372 7981.962901
229 2827.058816 941.004401
230 2175.679938 9826.885419
231 7704.361050 8932.514917
232 7278.931717 1806.252992
233 2299.078174 8639.587232
234 8322.305434 776.751113
235 2455.088831 8015.140014
236 7749.020809 8526.937792
237 1160.443459 1763.978287
238 7382.839349 7706.156536
239 2441.133568 2170.840563
240 2767.603157 1158.107684
241 6945.006355 3106.341591
242 1375.591114 1689.919568
243 8271.359319 8442.137385
244 7891.904874 2433.946373
245 7829.604582 1807.074277
246 8805.382266 2696.101075
247 2203.490191 1973.375979
248 471.654184 1567.091727
249 2996.703670 7497.435039
250 1715.692967 2855.499919
251 2238.476530 8264.145912
252 574.863313 7881.378793
253 1422.667749 3026.327698
254 8143.840418 2733.409141
255 8425.636574 8758.812289
256 7832.725511 1764.170222
257 8127.373038 7655.273898
258 7503.991569 1379.836918
259 1817.219063 2523.171480
260 2192.179398 9059.078008
261 8015.528855 9024.969160
262 8400.988492 700.556383
263 1102.423053 7521.319663
264 2504.938536 1373.950930
265 2015.998593 715.820354
266 1287.484079 7257.402158
267 8053.115780 2155.399548
268 7447.819478 1382.590745
269 7876.412066 2140.054858
270 7870.320722 8069.393675
271 1866.504062 7665.279143
272 9075.057974 2034.045553
273 2513.434594 7972.581863
274 1431.144712 8362.812432
275 2136.539357 2541.035862
276 7408.763736 2635.955766
277 8467.209418 8560.780402
278 980.458294 2142.594031
279 9292.695105 382.219440
280 2366.388097 7438.145605
281 964.042921 1592.834461
282 7472.474039 7633.520462
283 2270.026892 2164.136171
284 999.689837 3557.358364
285 7203.081311 1909.958950
286 3242.967904 1318.244079
287 2203.229953 2449.442197
288 7282.641150 8081.376583
289 2038.658810 2313.368735
290 1607.394811 8505.621212
291 8427.032329 2496.294510
292 1800.503491 9036.229308
293 812.691083 1525.992769
294 2038.549291 2465.680986
295 7377.674944 8127.171076
296 8725.405657 1174.840665
297 2853.467327 8471.943654
298 6990.899589 1235.481533
299 8235.114385 7835.064260
300 8368.800040 9165.489590
301 8204.830081 7774.969192
302 8014.718138 2728.014600
303 8147.512854 9283.306968
304 8321.459681 1956.197949
305 7761.519800 7527.399925
306 10000.000000 7974.720221
307 3292.086334 2583.748003
308 8300.297706 7087.789777
309 6921.590066 2276.646665
310 1888.865526 1936.972317
311 1646.301808 6630.369530
312 1893.799806 7360.435962
313 2261.266624 2226.678916
314 2360.634779 7327.130123
315 2896.445366 2552.086886
316 7281.579785 8301.597510
317 2237.857514 8384.754323
318 8529.283652 3118.526821
319 1272.354562 7349.033986
320 2005.955222 1827.064652
321 7714.560451 2412.688434
322 7864.081645 8014.412136
323 7872.044761 7701.890109
324 2847.275429 1116.306586
325 7833.219385 7401.975331
326 7211.965666 9431.151286
327 2839.416398 7277.458075
328 8352.915079 1937.852411
329 7173.238298 9497.847859
330 1330.682349 8026.078265
331 3063.737843 7884.949552
332 7308.641606 1735.313136
333 7734.414700 1795.001194
334 2466.786070 1208.949771
335 2682.404379 2225.269840
336 6818.105410 7238.145511
337 2116.672920 6760.648478
338 7122.531871 2058.770760
339 7429.738817 2100.297677
340 8087.058183 7980.120707
341 7956.348233 7515.310415
342 2502.240297 7281.766945
343 1763.516630 7706.873469
344 9069.282951 7868.481791
345 8102.113321 7995.119510
346 3449.995614 8654.232650
347 1763.266164 743.389306
348 7556.831716 8044.537946
349 1196.742855 7747.296003
350 2838.320154 2254.925422
351 1647.942955 9048.477053
352 1323.524868 1499.564944
353 7938.179831 1672.830244
354 7725.852576 8642.246856
355 2196.607884 8524.258952
356 671.559944 8102.491525
357 1349.387806 1836.692975
358 1968.651519 7678.988378
359 1221.415076 7343.983572
360 2576.960986 7982.947180
361 7311.866407 8290.789645
362 7798.348711 7243.919348
363 6853.878908 7834.222227
364 1034.259400 8360.738517
365 3626.965103 8616.562478
366 7401.277957 7051.285087
367 7353.017484 2696.287023
368 8174.338927 8192.705067
369 2551.327180 1736.798552
370 8582.554725 8263.819998
371 1312.043948 2380.863888
372 8048.792519 3816.285832
373 8645.413376 2315.305209
374 8178.274860 1802.981246
375 2848.433974 1697.981488
376 1048.668120 8254.959163
377 8437.836173 7549.961789
378 7833.820801 7745.447567
379 2348.349931 2727.379604
380 1398.931588 7690.453832
381 1433.928404 199.619291
382 7324.704209 7706.337218
383 7798.535997 7362.832456
384 2417.175170 8534.420916
385 2461.520870 8343.816995
386 8227.498029 7945.303651
387 8547.507649 2582.728728
388 2951.213619 6955.118765
389 2041.951095 2131.774556
390 2637.937389 944.716636
391 8145.918030 2130.150178
392 8860.811056 7854.869351
393 620.077323 7639.869686
394 3177.949038 8222.401003
395 8006.644326 2623.681644
396 7992.713070 6758.865245
397 7065.927720 8297.549446
398 1197.773659 2336.207264
399 3127.293134 3177.495946
400 1657.794526 7098.472826
401 8126.352410 1863.915439
402 7323.174452 9314.492798
403 7812.356591 1391.079457
404 1157.106904 8201.594290
405 2442.481079 8387.595696
406 8330.581257 6793.718878
407 1093.962592 8674.097263
408 1317.026167 8159.843702
409 7356.941218 1305.764774
410 8735.776404 1010.695279
411 7823.764640 2901.708191
412 1632.521343 491.176150
413 8135.072727 8590.261411
414 8331.495591 2266.827036
415 2158.888982 1036.332458
416 1594.993382 2754.425827
417 2604.487492 7726.717128
418 2516.821261 1942.334922
419 7847.019120 9077.344375
420 1460.492228 8450.491817
421 1626.945393 1301.444798
422 2098.657947 8960.483883
423 1704.653281 2557.184876
424 1577.261183 6972.061799
425 8281.085942 8064.850049
426 1941.755558 2652.052189
427 7887.928408 7795.797894
428 2825.329863 7795.672616
429 3318.150876 2327.110514
430 7012.386389 8622.745254
431 1216.253298 8667.417919
432 7632.798056 2146.530087
433 8337.238937 3178.902948
434 9045.769228 2531.939366
435 1428.983684 2207.914112
436 1159.029294 6892.017433
437 7460.316722 2159.670038
438 1759.640874 1420.816652
439 7108.693744 8252.768699
440 1868.512078 7998.913606
441 7877.994772 1853.823519
442 999.474630 983.465202
443 7535.689814 2386.769169
444 9046.699990 9315.137755
445 8963.980393 8688.193378
446 7100.260945 8079.498324
447 8120.702235 908.859557
448 1208.098547 663.996214
449 8046.250543 7979.354724
450 7608.275544 2667.022790
451 8254.534916 1060.498616
452 6695.100679 1911.971906
453 7905.755093 944.082960
454 1195.301455 1340.290315
455 3103.624665 1916.308920
456 8061.006377 6940.175838
457 9001.803776 7560.501579
458 7499.902590 1522.288585
459 9134.608830 2217.953590
460 1022.325738 2006.521391
461 2163.290181 1336.919080
462 8218.993202 7809.162898
463 8007.290246 2410.156642
464 7612.824288 8011.458169
465 2219.511543 7807.742390
466 8558.926254 2001.380450
467 6551.216059 1651.585414
468 2433.454024 7202.045242
469 2603.692658 8973.574484
470 7516.094855 2041.888599
471 8319.122938 7714.838872
472 7025.157780 8132.716151
473 2246.134968 8550.712658
474 2262.778769 1310.156404
475 7553.706686 7270.918585
476 7570.278956 2292.217099
477 2525.149359 1197.944687
478 8203.467241 7774.685999
479 3538.533534 2686.292085
480 8738.143975 951.594343
481 947.244122 1926.977858
482 1353.411276 3005.389542
483 7556.559011 2419.939119
484 1746.211883 2435.126894
485 1790.608046 820.002187
486 2807.442522 2042.214760
487 1470.699126 7794.350260
488 1816.960751 8324.967023
489 6928.978803 724.300675
490 7765.415733 2148.401016
491 3309.451478 8251.779052
492 2335.919329 7894.413263
493 2778.135185 8175.552489
494 7935.551343 7742.929813
495 2470.708266 998.489070
496 7674.318607 7897.345570
497 7538.763143 7888.875099
498 1746.073312 8453.008254
499 2507.746036 9043.342089
500 2003.106526 8621.749479
EOF
