NAME : uniform_euclidean_n500_r3
TYPE : TSP
DIMENSION : 500
EDGE_WEIGHT_TYPE : EUC_2D
NODE_COORD_SECTION
1 4273.768007 3825.671863
2 7427.764189 6450.027923
3 4176.913588 715.929386
4 4400.505805 1441.129938
5 6833.028655 530.208234
6 8429.073211 6164.351136
7 9654.788502 2851.753849
8 1568.317296 3748.887485
9 6120.559965 2881.801661
10 6522.704654 6935.857059
11 8814.697674 1637.289800
12 2640.916858 7846.911051
13 355.980614 8727.222506
14 5074.870030 5220.082019
15 158.919869 1057.051112
16 8752.207646 5371.225751
17 2537.240468 3983.611167
18 2728.329641 7819.231198
19 5714.460441 3278.149950
20 341.110098 5745.025506
21 2147.529437 2338.150962
22 3772.446214 18.238903
23 7958.823005 8938.413312
24 674.420122 67.024782
25 7975.223815 7036.401235
26 4591.536216 8579.863487
27 7457.330836 7632.178385
28 635.008262 8147.261453
29 1655.636785 2023.093792
30 6699.246110 5467.143179
31 5506.679516 7960.971045
32 137.143613 6784.844899
33 777.924693 1033.314703
34 4390.893130 104.045051
35 8502.416353 6150.168743
36 7033.274535 277.346537
37 2345.781046 4673.883250
38 5642.143833 2612.334667
39 9243.024013 9122.296291
40 9040.488040 378.090814
41 9297.347220 5203.738660
42 2151.185396 4527.541514
43 5093.327995 4061.492670
44 1453.461290 5238.148060
45 6048.454809 7335.104529
46 6196.709288 2784.793534
47 6433.645685 9189.249261
48 4333.594100 6.920331
49 9271.163285 8589.118071
50 3471.234629 6858.339115
51 7116.925046 5053.518738
52 8143.757445 7713.434830
53 7608.970198 4478.170082
54 6386.018439 4554.687359
55 9792.842799 8323.627017
56 810.457828 2417.398612
57 9602.939940 2325.127181
58 8638.035620 4513.243807
59 9334.170059 2980.703811
60 389.620322 61.628217
61 8849.710864 8490.023208
62 2258.735590 8291.001274
63 4264.640769 5318.192170
64 3829.904161 5484.813850
65 7801.583534 411.779005
66 5807.642796 2590.533968
67 8345.096226 4256.726747
68 2663.375110 7659.497018
69 7289.500809 5406.386813
70 7383.944421 424.194272
71 1701.693709 3313.220929
72 2610.524817 2815.841244
73 9008.487672 5396.401368
74 1763.355269 1760.855604
75 3626.650126 3067.475679
76 7927.968065 2700.785153
77 8219.736515 6620.244764
78 614.406517 9199.254897
79 9699.236891 7891.491296
80 3508.011365 9603.029384
81 8415.279017 4805.915633
82 5349.201609 2227.892802
83 8262.353048 288.635603
84 2515.054081 6179.937574
85 2306.943346 3138.762640
86 7520.990938 3628.361518
87 6581.206694 5339.828762
88 7431.326360 1417.410947
89 8310.471251 5729.806497
90 6147.108705 7642.229786
91 3091.580507 9658.163367
92 3569.154551 9597.879589
93 5798.260907 1096.816908
94 5544.393761 3239.721346
95 5735.889667 4381.034927
96 9732.494074 4508.775918
97 7929.854456 1922.036544
98 665.794702 5027.607511
99 8496.168161 9695.370513
100 8678.008629 4147.211194
101 5328.043268 7808.158896
102 2085.041432 7175.108419
103 3405.191325 5784.679961
104 3332.173189 8336.164118
105 3877.775003 5075.437708
106 5305.415964 9890.991915
107 4582.534022 7801.374483
108 4747.528718 1852.808061
109 2901.869281 2342.422559
110 7855.121048 2738.246637
111 376.095300 7616.754960
112 6325.058463 611.333708
113 8213.744386 2618.106620
114 7608.337755 8655.716636
115 3801.279984 1599.537532
116 9417.019545 6527.605577
117 8134.559884 8766.230189
118 9836.049298 1664.528806
119 7254.019925 8981.310804
120 890.079584 9534.380810
121 7769.400969 8398.877128
122 4869.423394 6795.100880
123 8462.201766 3302.083092
124 9396.871379 7325.409300
125 4920.959478 6566.728067
126 5853.666808 7742.469263
127 5834.580675 2920.685295
128 6074.676000 2996.664080
129 2678.265454 2740.220133
130 4486.599426 9754.307976
131 1607.145705 4850.602954
132 4503.769330 549.641555
133 365.308855 7500.133235
134 4944.124572 9474.368413
135 265.674250 2913.033452
136 1381.005004 4023.982870
137 6705.027887 5200.901041
138 5080.217687 840.682203
139 5095.680045 105.471140
140 5029.051205 6467.122081
141 642.810931 5419.691303
142 8389.792536 558.593872
143 5516.564237 9844.294881
144 4709.263419 6402.755890
145 4293.353222 7644.644673
146 4012.687602 314.382695
147 6737.357451 758.371640
148 3534.017822 9845.750446
149 2320.844594 1756.765675
150 406.973497 9235.058107
151 1673.419954 8838.914804
152 3758.122112 2036.326461
153 2138.548477 519.166722
154 4688.033427 923.025982
155 5945.994138 195.297181
156 6768.614464 9796.385854
157 7140.835593 8079.872924
158 8787.381353 4408.990604
159 8202.484632 6314.269665
160 2840.816011 7825.984560
161 5890.510813 4038.574955
162 6701.573780 1453.707670
163 7406.323057 1836.464022
164 8195.979800 867.776171
165 102.421286 744.013120
166 6232.784627 1400.952371
167 4872.360077 7722.120817
168 5975.669045 9105.434993
169 5718.799008 190.184960
170 9549.142831 5411.621271
171 9135.192055 7206.056508
172 4176.945773 115.563711
173 7857.956355 3782.923307
174 2558.401575 8003.473275
175 1640.463796 7693.538137
176 2704.839273 7884.207946
177 7072.305400 7168.692014
178 9259.256685 8941.828291
179 2145.557131 2501.542627
180 3914.428141 4983.879400
181 5231.725065 4145.359213
182 8837.086614 8413.214019
183 4101.168586 4987.842296
184 5484.387938 2787.257740
185 1915.218429 7745.578945
186 7265.192875 7320.195411
187 6087.130567 3805.911725
188 1283.057099 5102.567665
189 8930.055469 1792.017973
190 8683.298850 4819.897355
191 4807.225924 7213.040754
192 5500.985962 9858.117030
193 9502.665115 917.965694
194 3827.595942 5250.310974
195 990.080065 2944.999848
196 3886.873854 461.243429
197 1863.489031 4417.118204
198 4078.707083 4030.427254
199 7765.204381 142.876748
200 4864.106927 5132.605125
201 3276.130912 508.605328
202 7396.591912 8466.506923
203 6948.198907 8151.958696
204 1303.936201 9282.905879
205 9091.638326 1323.254357
206 3990.784561 9554.768900
207 4398.533234 3512.337541
208 2626.823625 1128.532983
209 8963.559008 5257.757243
210 1250.159869 1780.633774
211 3167.796430 4778.470172
212 2809.722244 3076.631405
213 5126.000110 4642.601708
214 8551.140232 3891.924156
215 3435.619486 6214.431532
216 7307.388564 3029.347481
217 8901.132705 5205.302990
218 3936.025015 1743.752213
219 9116.753378 2080.084779
220 7888.661208 8351.906129
221 2680.730216 665.843020
222 3819.260003 7890.480145
223 3969.586153 3.902263
224 7663.233555 8049.169324
225 6128.604975 4124.411227
226 2214.461034 6134.891101
227 974.361424 9059.468926
228 8674.449191 345.374072
229 1548.542870 5269.149167
230 5363.963400 5825.332631
231 6794.870895 6013.225291
232 6314.095720 3270.401999
233 5579.759973 8246.022934
234 2996.163913 4921.642303
235 2629.210036 6124.879572
236 2506.170689 3460.740404
237 2032.959866 3420.509864
238 4799.546454 4399.377362
239 7488.907015 2056.305223
240 1976.930537 8420.546450
241 3504.590191 6018.959247
242 6366.346719 175.566181
243 4138.011079 9214.632716
244 8204.005702 3072.217665
245 1344.126259 6567.900501
246 6101.868905 1128.082496
247 7352.423375 7617.027259
248 7153.004254 7688.338110
249 5905.086267 9724.696069
250 56.423109 874.332761
251 8879.601556 4847.709108
252 1970.102481 3455.139552
253 1419.260667 6905.027703
254 5418.472582 4670.038148
255 8516.642247 2204.899959
256 34.901301 1197.636398
257 1049.305824 2306.185880
258 3927.128164 1483.758864
259 1312.637761 1740.650773
260 5421.371868 5239.653893
261 7191.908308 5226.697425
262 6816.836997 57.388383
263 3896.269712 4463.139118
264 1460.335953 6752.804701
265 2098.998166 6139.372352
266 1947.870296 1334.045316
267 7861.427831 260.773648
268 2764.155444 9272.354035
269 2620.269858 9531.388951
270 9926.432922 8241.931443
271 9554.903956 2399.942137
272 2922.929752 3968.287089
273 9732.400421 6858.124721
274 9901.149697 261.022904
275 6619.452679 2114.924939
276 99.525436 5900.367332
277 840.320560 8483.910853
278 8261.971963 2560.746505
279 2768.877445 8784.210217
280 8950.838946 7319.108119
281 8788.096054 2760.236542
282 7365.803380 2169.619537
283 9353.323680 8591.390939
284 4201.745950 4201.672677
285 583.662996 7012.998007
286 6078.004393 5803.140472
287 783.039203 4583.612577
288 1497.268095 1463.884828
289 4321.838961 435.339959
290 2030.090657 3756.113632
291 2458.155509 2329.938345
292 6169.396840 3261.757007
293 6636.320039 7246.240916
294 5956.673734 7908.122802
295 6564.520341 6400.461388
296 4608.953086 6886.271582
297 76.799209 498.383551
298 8029.075392 4550.004133
299 4806.890624 6097.645537
300 2371.815593 3963.964400
301 489.731037 1369.796578
302 8820.599851 9665.130086
303 7598.602218 2789.127367
304 7512.017687 528.381216
305 4124.807911 5783.517816
306 2367.372487 4320.164167
307 3468.689055 4868.282896
308 4808.121980 6824.396921
309 3628.009435 4432.724928
310 3755.294129 3741.686352
311 5827.387688 790.292172
312 9489.628985 2610.325404
313 538.621148 2700.595065
314 4869.999409 8384.617754
315 5076.369538 5319.642868
316 3792.577343 7150.285359
317 2227.692501 6481.918188
318 7743.342008 4511.178745
319 8470.831782 4299.251073
320 2118.289757 9966.185145
321 9780.851136 8007.027102
322 1446.055708 5051.004735
323 3312.736859 2932.878067
324 5768.406575 4825.760152
325 7963.135945 7549.975101
326 5611.451945 5203.936632
327 6626.121289 6270.271298
328 2893.089195 529.387942
329 8153.584513 5123.247971
330 3319.012090 1478.968143
331 8666.497455 1992.400964
332 5146.029431 6653.827673
333 1582.354595 3993.612042
334 5904.524787 4256.642565
335 3628.664753 4237.713722
336 9106.078313 8241.381504
337 5748.596374 2993.988963
338 6706.116311 8490.136534
339 4425.158762 9599.645961
340 6541.364212 4394.244135
341 1797.553830 828.127327
342 2588.406737 6828.657191
343 811.927996 8220.094998
344 6681.975957 2109.408798
345 6596.136528 3197.425752
346 9293.044486 4556.414580
347 9087.986287 6395.128373
348 539.863646 7670.575640
349 3089.116555 6382.116046
350 97.902029 9868.788673
351 2932.678513 9728.371817
352 1330.905201 3453.366897
353 413.609452 6314.528710
354 9335.305481 737.391926
355 3614.877027 9458.310851
356 7044.073704 6986.732132
357 7726.564761 9755.243645
358 9303.890091 2629.466891
359 1840.433402 2048.599434
360 3472.803962 4388.073804
361 1104.198641 1681.606527
362 8007.499561 5313.544308
363 8921.036913 1728.580596
364 4464.028375 8788.081023
365 6879.705267 9132.079001
366 5136.078353 1166.239058
367 2037.510239 7494.012490
368 154.331453 9988.987955
369 4815.328648 2918.348673
370 3451.910537 1861.912565
371 7496.633115 5099.127531
372 2103.542852 4216.549760
373 6327.461224 3582.436345
374 4616.298385 7552.338235
375 9955.697093 1333.750249
376 5746.917492 2867.255010
377 4600.765011 5905.362773
378 9649.917960 6307.305567
379 2778.798983 6498.265658
380 971.391539 8291.425324
381 289.162383 7151.114158
382 1687.216310 9493.681841
383 3519.094961 2314.367503
384 1675.921501 8854.725592
385 1965.240059 7508.673778
386 1146.952342 4962.243432
387 9207.709965 2789.605395
388 4423.880773 3665.348154
389 6937.442178 1886.420714
390 7801.344584 1518.362489
391 6135.798747 8853.751295
392 5439.476331 7140.141225
393 5539.418708 3480.592006
394 5964.148225 7166.132829
395 7244.101234 3857.695302
396 8209.507848 465.534824
397 8617.248837 749.455168
398 1189.491802 5887.424196
399 7642.999745 7151.938396
400 9258.290676 3671.842936
401 7241.882075 8967.727902
402 3086.267886 28.453005
403 705.142177 8319.001136
404 5475.350261 1084.228945
405 9811.715772 9521.138858
406 3452.017431 765.395440
407 8873.606376 9553.698307
408 1860.502731 750.710320
409 4275.803905 9371.338216
410 9374.180335 5465.186983
411 9509.081138 9312.982900
412 2681.386819 5415.342494
413 613.799290 1718.913395
414 2046.022491 2035.232717
415 6380.520547 3166.147473
416 3441.881081 5925.595636
417 8199.913030 2273.532863
418 9023.823848 678.371517
419 9600.372880 5292.470739
420 198.367442 4128.316191
421 5703.717366 3123.563673
422 1160.617874 852.800167
423 2014.885926 3197.449868
424 6759.905966 608.639613
425 1982.170516 1214.684746
426 3722.006273 5956.091987
427 7157.327869 8423.152294
428 9092.887288 2103.268404
429 2686.675179 6416.894977
430 6701.383881 1590.551888
431 9582.536449 6183.476381
432 6276.543299 181.571390
433 6845.830782 9983.905211
434 1553.390049 8944.813320
435 8361.008830 9662.878841
436 3387.000933 4825.974952
437 6913.604376 4019.971017
438 912.818948 6306.093133
439 4411.336824 4147.405266
440 6311.788470 3619.093648
441 8734.949329 3376.533178
442 45.870170 1058.122125
443 2988.835216 5929.486018
444 1050.888952 8513.200313
445 9169.183155 3119.778231
446 8511.669680 4736.755807
447 6685.606893 838.469227
448 1807.771287 5448.332545
449 5544.552295 8505.049894
450 5199.495279 9585.043192
451 7785.918036 6258.414410
452 6089.874851 486.811487
453 3612.420106 7990.633206
454 9717.521891 9646.034475
455 2038.383765 691.009579
456 1921.837561 8652.886618
457 3445.814235 25.434994
458 7637.142907 5514.006235
459 6807.982121 4490.081646
460 7305.989768 3450.143379
461 3796.034452 5808.022203
462 1989.427874 5401.043699
463 8063.801606 5547.673350
464 331.532754 8957.541105
465 4661.999090 8179.148832
466 7768.481684 7136.028825
467 6426.588169 2523.580959
468 4289.244982 4148.554535
469 4222.764993 7440.663058
470 1776.301923 8469.489839
471 9260.014080 7532.481237
472 2059.693688 3690.586990
473 6372.265972 3940.589996
474 2619.267436 6892.056363
475 7163.466189 3834.475432
476 8773.550162 5210.176704
477 6012.725210 5728.379386
478 2464.397718 8179.368781
479 8521.580579 411.447197
480 7136.990021 8017.023031
481 9980.218879 840.104311
482 5898.468651 5839.847201
483 4274.117567 9677.370548
484 1448.391988 5489.471573
485 390.684618 140.376311
486 1008.451501 9015.774009
487 3327.155202 6481.393460
488 3959.732507 7270.766924
489 6352.097831 9168.242248
490 7779.960189 9780.612014
491 3873.002867 4814.895869
492 6697.660863 6220.545751
493 6037.841673 7890.711558
494 6979.384632 5780.208349
495 9400.142230 8321.150234
496 1775.645889 475.846735
497 3050.419693 7917.853063
498 1428.508104 1590.514975
499 9600.040099 9122.152402
500 66.432460 2595.951697
EOF
