NAME : uniform_euclidean_n500_r2
TYPE : TSP
DIMENSION : 500
EDGE_WEIGHT_TYPE : EUC_2D
NODE_COORD_SECTION
1 910.634621 6894.268686
2 719.101781 6119.823476
3 950.355549 4782.694308
4 6601.463620 5486.674952
5 5724.481420 6629.604405
6 8153.009871 8507.540104
7 5282.127022 9266.549445
8 697.049223 598.465673
9 1893.963324 5520.497157
10 6002.444311 8565.296344
11 5289.577477 2017.145942
12 7683.912826 2512.913439
13 3727.289353 372.898592
14 5168.497375 4150.994915
15 6744.196951 2111.255758
16 5716.437560 8219.318662
17 3782.379905 9135.403502
18 1929.423642 1910.246819
19 362.366586 7962.460962
20 4164.506557 399.464083
21 5668.710636 7315.951384
22 4592.364280 924.667919
23 7326.430061 6694.320328
24 7241.831698 4665.239807
25 8756.845776 3549.022349
26 9651.560665 1311.454999
27 6228.196129 2956.274558
28 4536.946028 5476.183252
29 2752.880800 556.027110
30 7102.337037 3989.116564
31 3396.199251 8807.500718
32 8146.200530 8160.553952
33 6282.133976 6712.032767
34 440.928796 8614.517120
35 1839.120357 6205.922004
36 84.556011 1830.691710
37 3936.081201 6882.844484
38 2480.513489 7259.414438
39 9227.105844 4403.144918
40 7750.885884 2174.214698
41 5019.153864 5945.581659
42 7266.596121 1325.176791
43 8917.856066 6790.197364
44 8137.754259 4513.725048
45 1747.804876 7806.625235
46 9978.658245 3618.866487
47 1207.291462 4329.187505
48 1324.628457 3410.939177
49 7748.008963 6767.375151
50 699.827293 6576.739594
51 6687.201405 1955.477555
52 9790.003948 6422.464091
53 1123.130472 7270.183522
54 1627.923985 8652.869619
55 2097.875153 306.753421
56 1034.320494 9998.318953
57 2612.321097 4966.937805
58 642.395924 4777.955721
59 3686.870730 3322.600311
60 191.299494 8306.187715
61 3582.188695 9758.384915
62 1942.917970 7973.608129
63 2851.473327 1406.626033
64 9029.422745 9620.876475
65 8374.362833 1399.473394
66 7416.408276 121.473125
67 2760.234046 1223.647647
68 247.120711 5152.612749
69 3791.190352 2235.684739
70 64.498124 6034.747922
71 8312.250533 3063.387482
72 9297.962903 5382.328193
73 4369.301901 5676.436479
74 6788.977277 1312.540293
75 6090.013541 8514.446851
76 765.842087 3934.525074
77 7832.440253 1509.156769
78 7003.029129 8006.711998
79 6628.315743 5289.396095
80 730.351750 5147.687757
81 4401.684129 3004.455873
82 1337.824583 3801.657833
83 8759.552089 4412.317699
84 9293.709741 8068.835178
85 3770.263395 7800.982944
86 7874.188528 3737.576069
87 9289.664365 1048.176215
88 6792.460768 7707.890614
89 9551.425930 8519.774684
90 508.420050 8601.882663
91 5498.163144 5046.538410
92 6262.265248 1048.475308
93 8972.398325 1367.830821
94 8463.724476 616.694847
95 9962.338230 770.513872
96 8303.545158 8823.505750
97 3967.594132 3785.695706
98 2082.858998 1461.197535
99 2927.912431 658.509127
100 7391.125373 4332.965914
101 6492.865002 9232.501061
102 566.467679 3281.613551
103 947.992571 536.128815
104 7493.858631 2803.792946
105 7207.248631 8821.689614
106 7028.643337 9966.828329
107 5986.157197 7143.752868
108 9426.350363 7056.742979
109 7966.540716 6867.263509
110 705.838873 1138.126796
111 7371.292740 4490.763057
112 9913.093821 3361.724903
113 8415.747165 5312.435518
114 2511.299036 4002.979915
115 9659.295482 3071.486635
116 518.207208 2184.606073
117 5642.602339 342.281234
118 8717.907636 635.182202
119 5389.478968 9538.204160
120 245.882910 533.821539
121 6217.033522 852.198013
122 8545.130264 3238.238992
123 6960.419394 5492.027405
124 6255.316176 765.026815
125 8370.153140 8988.544509
126 1744.276751 659.435596
127 4722.134498 2735.560609
128 2725.632441 5172.211001
129 8356.712792 4861.672119
130 8601.802348 2905.455248
131 9618.693110 3336.834990
132 1167.339943 1798.556884
133 3820.287529 7490.347050
134 295.154007 6691.504908
135 8644.931689 5892.367057
136 943.089705 2609.427149
137 8179.398759 4390.330033
138 5165.711808 200.117894
139 5063.508513 6029.313634
140 6428.262403 2959.729595
141 8911.117666 7910.065461
142 6548.315336 587.639336
143 525.969475 1381.876165
144 7399.282458 299.991544
145 246.056269 5774.789751
146 1664.330847 1815.752672
147 7838.099216 9353.491659
148 7833.935755 1264.380685
149 6694.412154 2361.539680
150 1158.242618 5600.651864
151 9728.758236 7150.036607
152 9180.960289 1171.730311
153 9278.602028 4247.441346
154 187.596579 997.313210
155 5607.234270 1422.715258
156 7702.459323 43.130784
157 8013.696322 3947.745528
158 2410.631986 1135.553847
159 9554.253187 2169.498933
160 6150.047627 8099.149638
161 5047.412005 5597.662107
162 5979.554550 9750.484431
163 516.290442 4354.364495
164 1678.672767 9272.786877
165 1215.311263 6313.630010
166 7735.749843 8015.807650
167 9224.335325 4469.203171
168 8651.513713 3965.619322
169 5928.098687 546.692930
170 5501.864149 308.266688
171 1715.988904 6246.331847
172 3889.360881 1780.510923
173 6619.613914 1854.399232
174 5379.904206 9638.914994
175 2028.310985 2373.484541
176 6592.174921 1130.482935
177 7157.937079 9730.483617
178 2813.981313 2520.200633
179 2988.548585 784.400510
180 6857.740221 3603.045486
181 2794.454655 934.390574
182 7606.971533 2858.006404
183 8609.819287 1088.668350
184 3928.603174 6023.452572
185 3906.991666 913.059072
186 5624.607343 1282.798210
187 6479.230898 1023.550284
188 3505.235896 3754.160492
189 2517.151492 6526.756910
190 953.367291 447.152463
191 9105.082420 3687.996915
192 821.966919 4347.311991
193 806.139973 4075.377154
194 7689.625759 4744.243608
195 1685.990172 7301.072484
196 651.132426 4805.339642
197 6803.492417 2304.076115
198 7485.029512 4557.967885
199 7074.989935 4626.264145
200 9999.750159 457.530549
201 1130.134154 5585.179860
202 5312.507165 9542.991063
203 6712.364237 382.971802
204 5916.788278 6862.721412
205 4036.301743 2555.685586
206 4732.338626 7207.929441
207 5503.323117 8009.423310
208 2503.953212 1435.252810
209 8597.422349 14.711805
210 1536.804366 4457.385461
211 4634.693843 8137.850424
212 629.809250 3830.055217
213 6340.932656 9220.017410
214 6440.271156 1536.994814
215 6097.487569 1481.206187
216 5458.606242 243.689953
217 6700.553688 1765.256803
218 1299.115045 5261.838902
219 1977.894645 5435.707380
220 1200.361331 3775.006685
221 1383.190778 9346.795675
222 7670.786157 1683.970673
223 4574.551488 549.707391
224 3337.899165 2948.008238
225 4344.271555 7161.077629
226 3571.197054 468.063252
227 3010.983533 964.528308
228 2246.152670 170.918198
229 9661.945715 6084.710842
230 2162.099798 5446.440881
231 7585.945963 977.248822
232 7118.284828 931.457556
233 6194.132232 133.619416
234 36.275220 1426.299978
235 2109.655633 5928.616176
236 7080.079926 5282.436340
237 4588.589548 9603.967767
238 1261.908661 295.747000
239 6792.875598 210.897735
240 7166.745086 3581.010517
241 2246.953062 5236.817976
242 6837.788280 2245.738773
243 1982.844396 9707.447254
244 9415.576383 263.756772
245 5137.695401 7657.809396
246 5180.967858 4050.909994
247 1011.223338 804.410040
248 9358.071737 1705.267264
249 427.842606 5501.295630
250 8932.578932 1353.449615
251 8765.762362 3250.282776
252 467.065473 9011.108483
253 5082.793210 7073.729445
254 2954.818662 3651.540091
255 6120.272245 4081.160034
256 3622.933381 9606.326773
257 4316.873126 9341.121155
258 854.243010 256.783771
259 9257.047268 4632.421486
260 9346.586272 2257.931974
261 8486.744726 3048.141696
262 6231.342689 59.950516
263 651.026287 566.396216
264 7251.410206 132.619511
265 5838.490989 234.100647
266 640.367043 1392.415766
267 4460.588193 7641.295283
268 4496.664936 811.081540
269 1142.333002 1821.264363
270 8977.518464 8.188887
271 2254.140933 8202.232026
272 6419.315249 606.130401
273 6429.471936 485.890750
274 820.344116 7534.684166
275 8444.455082 2594.964871
276 3344.188871 6374.391285
277 5598.873503 8025.267321
278 8363.289067 7239.911420
279 8699.813159 5952.859902
280 4259.731409 1982.960071
281 5903.850402 7046.980397
282 7028.500031 53.934786
283 8553.915850 1719.766508
284 7432.634897 8767.019299
285 1581.124003 669.990568
286 7922.923608 4287.555186
287 1034.255732 8293.017002
288 4180.208094 1624.127642
289 4744.126184 4594.221358
290 46.333035 6543.618930
291 2404.445120 4627.534974
292 829.850513 2084.778924
293 2428.337859 3916.209539
294 1648.197472 5430.447189
295 3536.325415 5934.260649
296 4469.056743 6741.503505
297 867.874782 6730.022830
298 1971.142707 8772.593402
299 6260.264449 1294.489262
300 9354.176834 2145.972059
301 5051.609094 3867.514065
302 5503.334435 9346.638232
303 5193.086634 5374.219376
304 3940.355442 8216.789468
305 7402.547115 9242.679257
306 7469.651671 6662.486007
307 5924.041101 2090.059222
308 4497.535233 738.762912
309 2956.475370 4469.700992
310 520.723187 2908.538432
311 8523.408779 3485.833611
312 9272.357507 4980.564580
313 6065.421424 254.795782
314 2749.223173 1889.410133
315 2221.882681 7239.054667
316 1135.601496 2653.074384
317 4255.581898 9078.593055
318 1356.491031 8821.182326
319 7143.077804 4156.312450
320 8682.586316 8922.930062
321 2675.006761 6162.933344
322 1699.942543 308.010400
323 9584.152391 3604.087867
324 3386.399633 3002.881938
325 7877.775492 6593.154290
326 4555.335183 6645.469728
327 8242.456574 7040.196013
328 2010.460808 7532.223569
329 5314.090689 948.963018
330 4921.478752 5420.238213
331 6800.499238 4016.624095
332 6168.493478 9410.925274
333 1599.487437 6493.634712
334 545.425755 3206.848546
335 5419.174177 4262.033457
336 1182.001599 1618.677087
337 6874.893907 9545.925977
338 2548.404024 2937.662002
339 4.265142 2988.081899
340 4691.211722 3257.308729
341 1141.681015 3160.075904
342 4112.194499 4466.778416
343 9921.451239 4550.360487
344 6303.000547 5250.918859
345 2052.995076 6099.361133
346 7045.649275 1164.415470
347 1731.485606 6125.615166
348 7984.410826 6597.862502
349 643.761476 3488.678638
350 317.352707 1436.260235
351 3165.125654 4479.833180
352 1224.714397 8576.392052
353 6357.527273 9802.319531
354 254.692647 3523.783970
355 4358.632667 2561.213228
356 998.527537 2777.153216
357 6588.583515 9917.591647
358 2302.883605 4658.705434
359 7213.026796 375.978021
360 7955.022833 7232.376693
361 5704.898188 7260.107524
362 9373.067264 1681.771057
363 2557.698741 4835.779043
364 8978.086100 6175.333480
365 8691.035235 9428.616629
366 6707.685496 8995.086729
367 5065.948956 8633.481321
368 6577.481682 4933.609395
369 1351.328101 3119.777585
370 3674.019110 1050.768750
371 9787.296159 7747.278800
372 1420.104153 3195.688006
373 903.763639 3921.840614
374 46.573008 591.562322
375 6073.860890 5946.454778
376 7817.626425 1450.480615
377 8430.319624 3640.812246
378 2978.434427 9103.033592
379 8143.856565 4310.880081
380 9145.048813 3670.854539
381 733.928769 9326.343456
382 9720.115588 3567.069074
383 2377.181152 4296.667182
384 5424.905853 3111.817107
385 5051.638911 4774.312951
386 3306.727131 9612.967968
387 5698.803363 5365.542633
388 4717.366018 446.222132
389 5657.768191 6989.559440
390 899.107682 1812.896400
391 1639.506442 6208.302044
392 9159.441698 3092.361617
393 6926.294874 6853.502616
394 5008.325402 3802.936434
395 638.090022 4002.917371
396 9826.949141 1164.419588
397 7508.339975 9928.709654
398 6938.539320 2558.130512
399 6382.892620 4264.761628
400 8047.568846 4943.658153
401 4135.346693 243.277715
402 5500.653811 8263.365891
403 4060.913669 1312.166922
404 3140.904109 3227.873235
405 3892.680512 4062.987461
406 3458.593001 6010.502887
407 2145.037753 7849.316690
408 9939.363406 4843.470882
409 716.225381 243.978161
410 430.946121 8318.140159
411 6931.161832 6362.456753
412 4033.636949 2321.473097
413 9933.773506 3049.724404
414 666.017397 3491.503305
415 7269.730677 845.891447
416 9069.182729 5733.207063
417 9152.070943 1175.252189
418 3356.683264 2364.329938
419 1458.149780 2305.946609
420 5961.232341 4109.432948
421 2428.084956 4011.027980
422 5491.871325 7264.646403
423 8256.599515 1142.656873
424 3838.716613 9348.270742
425 9124.115322 4863.039780
426 9856.017096 49.808165
427 4624.453715 8271.809767
428 8104.264630 548.037433
429 4154.760382 8980.795081
430 763.942266 8927.353450
431 8952.297295 5297.787544
432 4834.652809 935.492505
433 8560.801959 3983.004475
434 123.670180 4665.231270
435 2805.893869 5976.521510
436 8039.714856 5730.225584
437 1835.711011 5811.916041
438 5700.522058 8100.000626
439 7727.444082 4902.412348
440 9921.521193 6514.115804
441 5821.368502 3811.325573
442 2402.657749 171.367991
443 2092.949851 7765.175014
444 3962.313499 7872.768359
445 8248.560754 4416.600770
446 5076.668475 1929.189824
447 2924.899578 137.507230
448 7167.440449 8961.125386
449 6227.090132 488.707550
450 6049.462758 1378.622466
451 3656.117546 9740.602379
452 2617.555626 7013.345752
453 7666.758392 2605.287466
454 4885.878948 802.251608
455 6965.428383 413.477262
456 7320.224025 7468.431526
457 5406.948393 2022.689152
458 8778.545186 3495.279727
459 112.948664 7595.832252
460 3209.471974 3722.976289
461 7644.491906 5478.948892
462 2001.750477 7110.983414
463 6476.720979 1898.282593
464 999.890003 5212.720589
465 4146.619492 5073.797034
466 2664.129826 8605.971905
467 7294.926947 2873.878995
468 8887.507396 9611.187107
469 7506.247491 7657.210377
470 774.446773 458.473721
471 8205.290235 4377.062625
472 4711.407216 657.584330
473 3506.314966 1557.199993
474 3743.863290 4316.330417
475 9407.226110 2033.901905
476 2468.711517 5789.106861
477 4528.547844 2476.576041
478 3476.296047 727.175280
479 3729.944040 5298.287790
480 3344.350940 9452.421970
481 8024.644026 8546.131260
482 4864.726111 2908.423823
483 54.661621 1800.283380
484 7516.992025 1885.777709
485 1964.275432 4185.662872
486 8565.462081 9170.789133
487 503.476690 9482.814886
488 9403.114648 1811.945826
489 943.215726 5213.883151
490 4596.190054 1013.023903
491 7734.867525 4461.484647
492 4230.877397 5455.687116
493 3065.984838 8715.425004
494 3563.135218 6280.332485
495 601.582889 4055.405832
496 9527.943303 2291.602270
497 3627.103792 9796.331490
498 5919.689009 15.721089
499 1160.280779 9033.577320
500 7011.873240 205.689062
EOF
