NAME : uniform_euclidean_n500_r1
TYPE : TSP
DIMENSION : 500
EDGE_WEIGHT_TYPE : EUC_2D
NODE_COORD_SECTION
1 5330.997536 9923.466320
2 3611.753582 1475.948229
3 4458.461646 8429.675948
4 9088.036351 7461.280795
5 8041.783972 9677.720231
6 8653.430675 3717.129915
7 2044.389801 3152.642075
8 9447.667564 9805.123167
9 5265.204871 9950.012932
10 9314.864566 9653.059972
11 8738.033791 912.850766
12 1306.447526 6285.444621
13 152.914915 5088.056268
14 8708.536840 5272.538319
15 139.483078 4191.875082
16 4553.007766 3032.225809
17 2903.224713 4752.558002
18 8376.049047 4031.574698
19 3824.996262 9128.913441
20 4618.312243 7454.344264
21 997.442688 6662.535732
22 7991.385296 8708.161624
23 2925.146410 4531.125933
24 9156.897818 8966.142037
25 9087.211325 9651.424335
26 7480.268953 1968.331305
27 1294.306569 3768.821675
28 5818.278190 9940.433497
29 8908.876131 8726.617876
30 9332.994720 3729.447299
31 9690.729201 8832.211704
32 8760.030927 1766.839352
33 7912.589958 7919.468186
34 6309.792461 8608.486795
35 1470.511966 2303.245427
36 8410.055001 5626.869037
37 7727.067605 9958.717994
38 2872.507267 6486.562398
39 7834.888139 7349.708847
40 7193.010273 7356.251208
41 1138.758088 190.196751
42 6844.093353 2518.733571
43 8050.492588 3550.382629
44 9531.198921 4554.503879
45 3440.807474 1631.052159
46 3566.051481 4591.515645
47 4410.644717 9599.335378
48 3409.766709 7220.943174
49 8383.016132 6860.906926
50 8709.407366 8597.801089
51 6625.490500 2554.422183
52 3424.741850 5412.088178
53 2734.561738 7340.791767
54 4936.053007 7834.081317
55 9005.605166 4253.399671
56 6671.732251 6166.048525
57 1643.330781 1654.013859
58 1535.245168 607.739660
59 1838.942141 9633.540198
60 7292.228103 1221.142271
61 9271.263066 9935.270693
62 1558.201877 5508.841978
63 9152.143561 3547.457147
64 7646.637015 7096.547651
65 201.279256 6206.977062
66 8554.034749 1893.811521
67 4478.758013 4120.910326
68 5073.269637 5872.732781
69 5216.687249 3400.108760
70 5010.193987 6073.358740
71 3532.422838 872.736189
72 1768.058253 6322.801794
73 7225.851002 7558.590170
74 5345.080192 9493.228733
75 4783.287831 7932.412832
76 7730.881750 1743.520984
77 5141.041153 8285.834590
78 5027.543532 1218.601570
79 2089.914606 64.678977
80 7220.900201 4369.335768
81 3232.090790 8100.019541
82 7009.328341 5122.774028
83 493.247280 6944.379959
84 2693.876636 4292.551816
85 281.704042 2672.409311
86 992.612151 5892.741695
87 377.770002 820.177743
88 2806.216075 6153.029541
89 2801.696639 8169.944630
90 251.073070 4.260968
91 4417.028825 4069.536665
92 524.879636 3708.844207
93 7837.440893 9222.235246
94 3005.283763 6028.567028
95 340.813079 1251.260914
96 1917.484128 8056.707119
97 393.576983 7772.790700
98 6626.458510 4930.238768
99 6727.597116 9783.692003
100 733.977228 825.363636
101 5912.267642 658.612231
102 1582.349938 3438.619029
103 1936.905495 3935.959016
104 3728.549829 1446.110879
105 7859.709960 9332.916769
106 1162.334052 5637.984683
107 5824.989524 4952.529283
108 6944.704351 8994.510454
109 7252.056386 6606.696095
110 4395.756884 7171.075324
111 4086.362019 1897.433757
112 7130.588795 5907.912025
113 6381.584044 6863.566299
114 7963.166107 9228.062102
115 7684.311353 3132.118460
116 2193.495242 3100.693194
117 6794.508746 6659.711597
118 8761.345697 962.465446
119 6521.517444 155.654252
120 98.286163 3709.399359
121 7131.360151 452.047833
122 4996.235204 4241.566568
123 4488.785161 3955.164414
124 4928.296629 7978.872245
125 77.015936 8699.977754
126 9248.729426 5768.781209
127 9784.857732 2365.860296
128 244.552200 3650.591968
129 6950.303087 1201.373496
130 1674.716751 1577.718645
131 2359.724002 1471.505484
132 3557.044677 7286.070903
133 8503.638448 1334.022916
134 2570.308236 9900.183931
135 1674.629406 9065.780567
136 4623.686974 3042.891206
137 1915.845648 9844.481792
138 936.757040 6103.798048
139 9535.804476 3959.761545
140 9151.972472 5985.004122
141 4482.225812 8270.744031
142 6625.020631 9591.958713
143 4927.936003 2894.591660
144 6776.542038 7891.412479
145 1703.023166 6180.664466
146 480.788093 7690.348748
147 1378.970938 2383.521337
148 9166.365385 7125.370960
149 6981.953819 6864.673576
150 9462.260226 6235.405262
151 3132.833719 3359.444901
152 1960.951400 7614.128645
153 6523.135714 6902.794252
154 9308.137211 6636.996294
155 6375.946634 6817.182147
156 2386.285349 7367.360428
157 241.016389 2309.283405
158 1356.850832 7220.426225
159 6328.966949 3549.980298
160 2133.900224 1205.181176
161 6340.756582 5203.178595
162 3746.992882 1361.946720
163 7605.861053 5461.517737
164 4782.172489 8696.798430
165 1751.644502 6841.269054
166 3157.371891 8371.976565
167 4732.571703 8449.850057
168 7760.786122 7739.161057
169 9502.219603 5169.164913
170 9096.155197 6560.303358
171 5217.697234 6079.254165
172 6070.402687 5481.600428
173 9857.202076 9212.811257
174 9515.594248 4333.861622
175 3957.452218 9654.516497
176 9608.127537 8358.738557
177 8502.289957 3954.864974
178 5218.463688 8316.739351
179 4659.272083 1910.751066
180 4065.183900 500.941591
181 1653.026632 9196.137029
182 2443.707457 9745.265012
183 5804.913020 2032.105634
184 8077.307237 8114.952264
185 3039.629062 883.568151
186 1359.504926 314.410839
187 3563.740896 2514.497840
188 1668.377984 7144.638922
189 19.723056 1517.607310
190 9453.747326 676.666665
191 4259.597954 1443.849946
192 3993.600724 2799.981787
193 8993.779324 176.385983
194 3817.887549 5777.862048
195 5982.509701 1879.849878
196 5573.379646 4434.948020
197 9747.825744 3679.708325
198 943.486319 3029.059420
199 4047.904258 1318.791921
200 7756.535245 9047.515566
201 28.390215 4136.918794
202 9628.703226 9469.224296
203 8225.765927 96.352251
204 5438.168440 3297.096046
205 9822.145967 5368.836444
206 2678.055147 5027.167060
207 9082.020594 7721.577283
208 7204.039126 1515.288706
209 768.303089 3190.851252
210 9972.367393 4987.685485
211 6513.448748 9681.284167
212 3240.137778 9066.357447
213 3797.159845 4766.485364
214 1443.802592 5209.781498
215 199.637741 3680.200938
216 9677.689241 9656.916853
217 9486.050355 9751.526980
218 9180.312608 6898.707832
219 402.084187 6278.825244
220 5035.047735 1297.423749
221 5456.576937 1878.258463
222 9300.125258 155.370366
223 2568.478223 7547.833648
224 9132.445683 5242.759509
225 1619.165742 5220.211404
226 7276.332099 6126.091444
227 1054.584047 5126.489853
228 4597.720261 6144.366154
229 1846.263716 5974.248430
230 2554.470378 914.613285
231 3923.660219 2619.371705
232 6826.487216 9239.193149
233 2828.851409 6592.840058
234 4715.619207 4122.536067
235 201.841717 6591.175789
236 2182.421195 3280.013570
237 9520.185446 8627.995985
238 7974.046792 1821.715670
239 3266.000727 1763.424770
240 4209.919696 6146.557175
241 7914.895687 4311.092678
242 9724.061919 3012.935343
243 6698.920282 381.973335
244 8732.469781 2481.235983
245 8196.664287 7798.900294
246 6210.023283 4490.595464
247 9151.366812 154.894757
248 352.769848 1658.942991
249 8606.173553 4211.155846
250 5760.179481 6716.197837
251 3727.759439 4501.522706
252 750.780448 4598.995100
253 1544.822124 2378.092441
254 5805.643520 7996.768586
255 2516.680625 4550.101145
256 7341.131535 4473.466090
257 1527.138719 6261.448954
258 8344.903850 201.044970
259 3928.257949 6421.204536
260 2521.958675 1146.639127
261 4873.838594 4148.255516
262 5455.848279 22.205342
263 7101.770596 2230.957877
264 9011.657596 8979.289240
265 9934.317911 9291.507203
266 8332.128184 4641.927716
267 8549.491309 4192.277651
268 8392.528853 1224.267688
269 1914.990012 9902.084555
270 4108.892864 5143.338472
271 5251.612364 1150.975506
272 6141.998480 4000.472349
273 6241.820144 1363.185955
274 5617.698959 8625.660569
275 8097.093093 7802.407719
276 6147.542606 4273.966458
277 3920.570794 9583.386964
278 5381.884620 9762.550973
279 5347.968775 1636.363957
280 2707.739677 5574.572074
281 3463.512525 5771.847192
282 8610.666966 4043.740096
283 477.102611 8888.647342
284 5728.429988 7356.176690
285 1721.540086 9010.216773
286 3621.803652 5037.149796
287 5931.422713 5219.581938
288 9257.977545 7435.781966
289 7195.881585 4798.732730
290 6040.138194 3962.791765
291 9707.103300 4364.587682
292 1195.553624 868.665140
293 2430.393260 4596.483005
294 7832.531704 6901.885502
295 3586.217667 6610.539239
296 8873.508543 6833.597464
297 6584.521509 4280.999588
298 2026.457216 3789.928114
299 7697.055785 7543.128740
300 7696.537048 5819.387348
301 2040.296086 6292.061801
302 7788.103855 7844.449103
303 9768.398001 2766.950527
304 640.816538 829.770081
305 6702.187900 7681.999553
306 4361.409004 6502.556127
307 3510.959690 8043.354290
308 4105.914923 3547.200144
309 8805.141836 882.153439
310 4957.256451 8027.559305
311 9218.880266 9422.052378
312 8708.840459 8272.081856
313 3692.493412 5878.380868
314 4275.371810 4324.322152
315 7777.314741 6703.325842
316 1356.375372 4223.692679
317 8809.276773 8942.339704
318 3750.339907 8683.158759
319 9276.836238 2456.951303
320 6859.723783 6823.841742
321 5361.618921 1890.132049
322 5643.188650 8814.771455
323 4489.406340 2391.467455
324 4381.808334 8540.844488
325 3163.858458 8842.274054
326 6064.045960 9888.823120
327 5211.481481 2386.779218
328 4652.153589 5902.067054
329 2679.003599 480.782886
330 3041.944487 8695.615054
331 4798.191031 5945.457756
332 5875.568684 9060.416780
333 6343.882436 7850.780809
334 8111.394609 4729.513151
335 293.655440 2050.417223
336 3335.924255 2886.845373
337 264.302388 6731.382639
338 4711.786617 227.791795
339 8168.127921 7185.139507
340 8866.931810 387.008388
341 3816.138082 8424.772235
342 5251.719849 9355.278360
343 7512.542077 3181.247299
344 4844.797838 9201.321750
345 7401.494016 8399.682929
346 7887.809322 6164.979646
347 2017.940889 5782.769314
348 4598.876354 9814.031712
349 2954.604311 9970.949765
350 8770.272085 8412.141719
351 4664.357672 6706.677026
352 5728.235096 9836.358853
353 5937.374634 8293.164635
354 9409.434132 2225.230455
355 4983.530898 8494.400530
356 1814.278076 6447.512906
357 7042.159627 8358.615321
358 9924.857697 2604.977689
359 977.964652 4373.925904
360 4058.813441 4332.830979
361 7160.395844 204.292734
362 1983.971434 2806.166177
363 1582.723896 6241.219732
364 9422.904508 4702.902984
365 9318.914639 5104.837630
366 2228.455819 5533.236424
367 3510.227126 6899.793250
368 5107.636047 1577.476392
369 9817.707139 2521.576574
370 2051.084873 1694.059017
371 1591.933120 4323.311427
372 5812.278177 2709.992562
373 4883.815346 562.149391
374 4182.876105 4547.686338
375 4592.272847 5634.030175
376 7183.737006 5326.176559
377 9531.742872 8796.916385
378 7419.505674 2668.620304
379 6994.956141 2865.382574
380 263.432991 4463.972019
381 590.458691 5285.860321
382 3127.117030 108.582262
383 3694.129822 3663.422875
384 3969.549503 2831.582228
385 9580.887396 1643.939306
386 4175.952849 3645.624684
387 821.556153 7594.094193
388 2732.370914 4063.938805
389 9703.079873 8772.111967
390 6828.416637 2549.179722
391 3579.317312 5747.466935
392 7614.440901 8585.555999
393 3117.539074 5379.719982
394 2463.852993 5760.031860
395 5327.619345 8501.387668
396 9262.812063 2319.027767
397 9080.171697 9354.713777
398 5681.088639 7191.472779
399 4149.270803 7938.856000
400 2040.192534 8953.892224
401 5537.930428 9371.528653
402 7317.286707 5697.658050
403 5937.857729 1593.169186
404 9323.375334 9021.100539
405 150.943367 2106.916115
406 4128.274826 3316.597083
407 8217.152694 3109.281241
408 582.395778 9820.840555
409 4734.660409 3290.674469
410 7277.011141 4263.808763
411 1433.822210 7880.850839
412 3312.020187 6959.652912
413 8638.837594 484.526932
414 3207.258261 7535.828651
415 1839.924746 393.397383
416 5067.824982 3907.629463
417 2238.941531 1605.588446
418 5902.951196 9798.095494
419 3929.177093 7939.205700
420 2924.391395 2484.051013
421 1079.098649 8677.745257
422 6176.308023 3191.349152
423 6829.246296 5329.909859
424 3117.565342 8233.614279
425 6447.428303 4886.576233
426 4179.698020 2166.631571
427 5195.076415 2616.169192
428 8700.096515 8854.510872
429 8556.667207 2686.677541
430 7296.289341 8496.957732
431 2497.738839 8051.541657
432 1861.444559 6114.189042
433 5776.277900 9496.450865
434 7566.844258 9125.412578
435 891.585299 1939.705544
436 584.797322 1958.836526
437 9649.392605 9685.130103
438 5819.475319 1538.919588
439 6757.219665 2986.450981
440 893.239655 6365.487064
441 6083.298773 2091.946497
442 8213.497416 5061.008394
443 2793.797210 3781.120285
444 682.416595 9890.220057
445 2607.225309 5385.492115
446 4503.154138 735.171746
447 5373.417342 9066.148822
448 6635.714209 5291.376251
449 4654.608084 432.293564
450 6021.371753 3275.108353
451 3202.183238 168.667721
452 1720.365616 7821.506607
453 8768.623967 8356.693433
454 2720.258745 5049.199600
455 7003.967935 4167.584935
456 2304.404592 5379.655007
457 7802.393341 6030.750011
458 8058.566822 7514.137972
459 867.346534 5849.831980
460 5310.382913 4042.043212
461 160.267359 2139.068538
462 9533.343639 5431.059960
463 7746.664623 9433.074755
464 5155.898374 3532.348490
465 5219.526452 2462.513635
466 5325.668547 7711.016508
467 456.040455 7397.815118
468 6163.183101 2845.978816
469 3289.262914 1272.662589
470 2059.663051 5470.353754
471 3816.595678 5454.352709
472 4029.790328 9691.872192
473 6013.713245 5971.435752
474 7966.942792 6102.434616
475 5198.682131 4462.643268
476 785.661321 1204.333176
477 7899.705762 7060.161072
478 3028.083554 4068.540916
479 2981.110142 4519.294080
480 3589.044903 4966.160708
481 5980.621830 8255.960603
482 5157.159883 1142.471033
483 5046.244284 6303.897256
484 4033.391102 5230.184894
485 9887.409230 1730.721223
486 4652.739351 3441.681467
487 8026.011788 6103.918429
488 8699.187966 3708.582617
489 9377.136579 3185.283453
490 8084.153969 4117.142952
491 5400.351143 4704.351654
492 2070.223010 7474.506974
493 1056.820306 4134.818967
494 2093.755585 699.225469
495 5535.179605 4145.180851
496 9483.814559 9881.746537
497 6788.527429 2303.412075
498 3989.713910 8446.701104
499 4988.617554 9679.351377
500 6026.820182 1504.509890
EOF
