NAME : frontier_clustered_euclidean_n18
TYPE : TSP
DIMENSION : 18
EDGE_WEIGHT_TYPE : EUC_2D
NODE_COORD_SECTION
1 2266.566526 8245.989851
2 1461.835924 7444.710066
3 2451.767445 1473.335302
4 1497.930601 7689.713593
5 2084.357404 8563.649127
6 2204.573161 2658.113892
7 7288.173145 1151.137024
8 6954.429547 1133.465595
9 8015.609863 8172.672721
10 1667.518772 1808.066616
11 7486.696648 8158.932848
12 8708.715388 1800.164453
13 7513.191484 8141.904119
14 8584.169467 2551.586613
15 1290.894261 7873.078551
16 1849.292979 1968.139790
17 8342.879666 8185.640884
18 1973.936216 2421.714567
EOF
