NAME : frontier_clustered_euclidean_n16
TYPE : TSP
DIMENSION : 16
EDGE_WEIGHT_TYPE : EUC_2D
NODE_COORD_SECTION
1 1607.654797 7820.984230
2 1927.519324 2239.891945
3 6997.354263 7187.726887
4 7625.006641 2830.476623
5 3034.523558 7169.821532
6 8108.152357 8430.898643
7 7665.404199 1648.992396
8 1266.767964 8061.022059
9 8991.821243 8487.493475
10 2024.634681 1831.298688
11 7885.075219 2359.306525
12 1946.233521 1292.687661
13 1934.507010 7739.274788
14 2349.713178 2622.422414
15 7959.718819 2984.271075
16 8244.929759 7889.208439
EOF
