NAME : frontier_uniform_euclidean_n20
TYPE : TSP
DIMENSION : 20
EDGE_WEIGHT_TYPE : EUC_2D
NODE_COORD_SECTION
1 1126.996132 4621.501995
2 4054.316102 1796.525366
3 7803.831486 6012.839546
4 3645.932184 5210.449735
5 2757.530727 3070.289194
6 4094.972540 4486.602405
7 452.763409 7445.201613
8 1841.682674 5860.861589
9 1246.774800 1532.801195
10 7812.367186 5245.068006
11 6266.646347 0.167146
12 3971.268104 1756.267718
13 1104.947313 8874.968598
14 8102.745502 9201.206366
15 2318.115328 3725.680408
16 8736.047748 5438.097143
17 1938.448679 890.669699
18 5219.246234 5974.623739
19 1790.286726 9879.765666
20 9490.326956 8996.071109
EOF
