NAME : frontier_uniform_euclidean_n18
TYPE : TSP
DIMENSION : 18
EDGE_WEIGHT_TYPE : EUC_2D
NODE_COORD_SECTION
1 3939.730945 7710.399136
2 7090.640076 6766.838969
3 7863.799005 3169.070424
4 7367.840544 1868.502118
5 5266.861373 7447.395430
6 2164.532900 7519.921498
7 1132.746854 7115.163632
8 7920.712187 7764.400656
9 6720.091490 1445.393233
10 3852.553744 5825.972326
11 8990.722852 9628.864911
12 5941.711336 3875.612048
13 9822.533051 1073.532343
14 521.522337 6211.523931
15 3263.560495 4879.657943
16 149.767169 3613.626870
17 9162.576061 8970.341462
18 9106.880973 1223.055284
EOF
