NAME : frontier_uniform_euclidean_n16
TYPE : TSP
DIMENSION : 16
EDGE_WEIGHT_TYPE : EUC_2D
NODE_COORD_SECTION
1 3648.334349 3904.496547
2 3486.971835 5602.720467
3 6432.200049 6538.034310
4 3485.475397 4928.490522
5 4685.529510 9080.952835
6 4773.255258 5083.284706
7 6098.944334 5761.732645
8 1803.131931 5866.788571
9 3251.650061 3615.523455
10 8797.267291 3323.232334
11 2923.555765 6150.424804
12 8126.343882 7427.177506
13 6446.280588 1834.647075
14 2341.668402 5810.154031
15 3455.601288 7647.507527
16 1371.417292 3359.242108
EOF
