NAME : frontier_clustered_euclidean_n20
TYPE : TSP
DIMENSION : 20
EDGE_WEIGHT_TYPE : EUC_2D
NODE_COORD_SECTION
1 7131.564612 7759.572811
2 8200.004521 2052.497036
3 8502.871719 1929.583791
4 2181.739822 6441.619722
5 2257.228088 3223.270181
6 1705.963347 1725.028803
7 681.472123 2073.501966
8 2243.226411 8937.153775
9 7242.419163 2195.478295
10 6505.907824 2244.722158
11 8144.700954 7960.616051
12 1295.937580 1823.627768
13 1898.253392 7730.482718
14 7418.632092 1551.824425
15 9249.956064 7211.508640
16 1535.186115 2126.147128
17 1672.897386 8871.323596
18 1281.879910 7827.825963
19 7411.827158 7472.274788
20 8764.959029 8593.227596
EOF
